 vasp.5.4.4.18Apr17-6-g9f103f2a35 (build Aug 12 2020 11:57:02) complex

 executed on             LinuxIFC date 2021.02.02  18:38:59

 INCAR:
 POTCAR:    PAW_PBE Li_sv 10Sep2004
 POTCAR:    PAW_PBE N 08Apr2002
 POTCAR:    PAW_PBE Li_sv 10Sep2004
   VRHFIN =Li: 1s2s2p

   TITEL  = PAW_PBE Li_sv 10Sep2004
   POMASS =    7.010; ZVAL   =    3.000    mass and valenz
   ENMAX  =  499.034; ENMIN  =  374.276 eV

 POTCAR:    PAW_PBE N 08Apr2002
   VRHFIN =N: s2p3

   TITEL  = PAW_PBE N 08Apr2002
   POMASS =   14.001; ZVAL   =    5.000    mass and valenz
   ENMAX  =  400.000; ENMIN  =  300.000 eV

 Optimization of the real space projectors (new method)

 maximal supplied QI-value         = 22.11
 optimisation between [QCUT,QGAM] = [ 11.50, 23.22] = [ 37.02,150.92] Ry
 Optimized for a Real-space Cutoff    1.08 Angstroem

   l    n(q)    QCUT    max X(q) W(low)/X(q) W(high)/X(q)  e(spline)
   0      7    11.497    10.506    0.36E-04    0.62E-04    0.14E-07
   0      7    11.497     8.367    0.65E-04    0.14E-03    0.28E-07
   1      7    11.497     8.983    0.21E-03    0.43E-03    0.90E-07
 Optimization of the real space projectors (new method)

 maximal supplied QI-value         = 25.13
 optimisation between [QCUT,QGAM] = [ 11.56, 23.12] = [ 37.43,149.72] Ry
 Optimized for a Real-space Cutoff    1.40 Angstroem

   l    n(q)    QCUT    max X(q) W(low)/X(q) W(high)/X(q)  e(spline)
   0     10    11.561    79.467    0.46E-04    0.78E-04    0.61E-06
   0     10    11.561    66.151    0.45E-04    0.77E-04    0.61E-06
   1      9    11.561    18.886    0.22E-03    0.13E-03    0.12E-05
   1      9    11.561    13.488    0.23E-03    0.13E-03    0.12E-05
  PAW_PBE Li_sv 10Sep2004               :
  PAW_PBE N 08Apr2002                   :

 POSCAR: Li1 N3
  positions in direct lattice
 exchange correlation table for  LEXCH =        8
   RHO(1)=    0.500       N(1)  =     2000
   RHO(2)=  100.500       N(2)  =     4000

 ion  position               nearest neighbor table
   1  0.000  0.000  0.000-
   2  0.606  0.606  0.257-   4 1.18
   3  0.394  0.394  0.743-   4 1.18
   4  0.500  0.500  0.500-   2 1.18   3 1.18

  LATTYP: Found a base centered monoclinic cell.
 ALAT       =     5.6850680000
 B/A-ratio  =     0.5899753530
 C/A-ratio  =     2.4107902249
 COS(beta)  =    -0.8075790219

  Lattice vectors:

 A1 = (  -1.6770250000,   2.8425340000,   0.0000000000)
 A2 = (   1.6770250000,   2.8425340000,   0.0000000000)
 A3 = (   0.0000000000, -12.8509870000,  -4.7637210000)

Analysis of symmetry for initial positions (statically):
 Subroutine PRICEL returns:
 Original cell was already a primitive cell.

 Routine SETGRP: Setting up the symmetry group for a
 base centered monoclinic supercell.

 Subroutine GETGRP returns: Found  4 space group operations
 (whereof  4 operations were pure point group operations)
 out of a pool of  4 trial point group operations.

The static configuration has the point symmetry C_2h.

Analysis of symmetry for dynamics (positions and initial velocities):
 Subroutine PRICEL returns:
 Original cell was already a primitive cell.

[...]

The dynamic configuration has the point symmetry C_2h.

Analysis of structural, dynamic, and magnetic symmetry:
 Subroutine PRICEL returns:
 Original cell was already a primitive cell.

 Routine SETGRP: Setting up the symmetry group for a
 base centered monoclinic supercell.

 Subroutine GETGRP returns: Found  4 space group operations
 (whereof  4 operations were pure point group operations)
 out of a pool of  4 trial point group operations.

The magnetic configuration has the point symmetry C_2h.

 Subroutine INISYM returns: Found  4 space group operations
 (whereof  4 operations are pure point group operations),
 and found     1 'primitive' translations

 KPOINTS: Fully automatic kpoint scheme

Automatic generation of k-mesh.
 generate k-points for:   11   11    7
Space group operators:
 irot       det(A)        alpha          n_x          n_y          n_z        tau_x        tau_y        tau_z
    1     1.000000     0.000000     1.000000     0.000000     0.000000     0.000000     0.000000     0.000000
    2    -1.000000     0.000000     1.000000     0.000000     0.000000     0.000000     0.000000     0.000000
    3     1.000000   180.000000     1.000000     0.000000     0.000000     0.000000     0.000000     0.000000
    4    -1.000000   180.000000     1.000000     0.000000     0.000000     0.000000     0.000000     0.000000

 Subroutine IBZKPT returns following result:

 Found    234 irreducible k-points:

 Following reciprocal coordinates:
            Coordinates               Weight
  0.000000  0.000000  0.000000      1.000000
  0.090909 -0.000000 -0.000000      4.000000
  0.181818 -0.000000 -0.000000      4.000000
  0.272727 -0.000000  0.000000      4.000000
  0.363636 -0.000000 -0.000000      4.000000
  0.454545  0.000000  0.000000      4.000000
  0.090909  0.090909 -0.000000      2.000000
  0.181818  0.090909 -0.000000      4.000000
  0.272727  0.090909 -0.000000      4.000000
  0.363636  0.090909  0.000000      4.000000
  0.454545  0.090909  0.000000      4.000000
 -0.454545  0.090909 -0.000000      4.000000
 -0.363636  0.090909  0.000000      4.000000
 -0.272727  0.090909 -0.000000      4.000000
 -0.181818  0.090909  0.000000      4.000000
 -0.090909  0.090909  0.000000      2.000000
  0.181818  0.181818 -0.000000      2.000000
  0.272727  0.181818  0.000000      4.000000
  0.363636  0.181818 -0.000000      4.000000
  0.454545  0.181818  0.000000      4.000000
 -0.454545  0.181818 -0.000000      4.000000
 -0.363636  0.181818  0.000000      4.000000
 -0.272727  0.181818 -0.000000      4.000000
 -0.181818  0.181818  0.000000      2.000000
  0.272727  0.272727  0.000000      2.000000
  0.363636  0.272727  0.000000      4.000000
  0.454545  0.272727 -0.000000      4.000000
 -0.454545  0.272727  0.000000      4.000000
 -0.363636  0.272727  0.000000      4.000000
 -0.272727  0.272727  0.000000      2.000000
  0.363636  0.363636 -0.000000      2.000000
  0.454545  0.363636 -0.000000      4.000000
 -0.454545  0.363636 -0.000000      4.000000
 -0.363636  0.363636  0.000000      2.000000
  0.454545  0.454545  0.000000      2.000000
 -0.454545  0.454545  0.000000      2.000000
  0.000000  0.000000  0.142857      2.000000
  0.090909 -0.000000  0.142857      4.000000
  0.181818 -0.000000  0.142857      4.000000
  0.272727 -0.000000  0.142857      4.000000
  0.363636 -0.000000  0.142857      4.000000
  0.454545  0.000000  0.142857      4.000000
 -0.454545  0.000000  0.142857      4.000000
 -0.363636  0.000000  0.142857      4.000000
 -0.272727  0.000000  0.142857      4.000000
 -0.181818  0.000000  0.142857      4.000000
 -0.090909  0.000000  0.142857      4.000000
  0.090909  0.090909  0.142857      2.000000
  0.181818  0.090909  0.142857      4.000000
  0.272727  0.090909  0.142857      4.000000
  0.363636  0.090909  0.142857      4.000000
  0.454545  0.090909  0.142857      4.000000
 -0.454545  0.090909  0.142857      4.000000
 -0.363636  0.090909  0.142857      4.000000
 -0.272727  0.090909  0.142857      4.000000
 -0.181818  0.090909  0.142857      4.000000
 -0.090909  0.090909  0.142857      4.000000
  0.181818  0.181818  0.142857      2.000000
  0.272727  0.181818  0.142857      4.000000
  0.363636  0.181818  0.142857      4.000000
[...]
 -0.454545 -0.454545  0.428571      2.000000
 -0.363636 -0.454545  0.428571      4.000000
 -0.272727 -0.454545  0.428571      4.000000
 -0.181818 -0.454545  0.428571      4.000000
 -0.090909 -0.454545  0.428571      4.000000
 -0.363636 -0.363636  0.428571      2.000000
 -0.272727 -0.363636  0.428571      4.000000
 -0.181818 -0.363636  0.428571      4.000000
 -0.090909 -0.363636  0.428571      4.000000
 -0.272727 -0.272727  0.428571      2.000000
 -0.181818 -0.272727  0.428571      4.000000
 -0.090909 -0.272727  0.428571      4.000000
 -0.181818 -0.181818  0.428571      2.000000
 -0.090909 -0.181818  0.428571      4.000000
 -0.090909 -0.090909  0.428571      2.000000

 Following cartesian coordinates:
            Coordinates               Weight
  0.000000  0.000000  0.000000      1.000000
  0.027104  0.015991 -0.004971      4.000000
  0.054209  0.031982 -0.009942      4.000000
  0.081313  0.047973 -0.014913      4.000000
  0.108417  0.063963 -0.019884      4.000000
  0.135521  0.079954 -0.024855      4.000000
  0.000000  0.031982 -0.009942      2.000000
  0.027104  0.047973 -0.014913      4.000000
  0.054209  0.063963 -0.019884      4.000000
  0.081313  0.079954 -0.024855      4.000000
  0.108417  0.095945 -0.029826      4.000000
 -0.162626 -0.063963  0.019884      4.000000
 -0.135521 -0.047973  0.014913      4.000000
 -0.108417 -0.031982  0.009942      4.000000
 -0.081313 -0.015991  0.004971      4.000000
 -0.054209  0.000000  0.000000      2.000000
  0.000000  0.063963 -0.019884      2.000000
  0.027104  0.079954 -0.024855      4.000000
  0.054209  0.095945 -0.029826      4.000000
  0.081313  0.111936 -0.034796      4.000000
 -0.189730 -0.047973  0.014913      4.000000
 -0.162626 -0.031982  0.009942      4.000000
 -0.135521 -0.015991  0.004971      4.000000
 -0.108417  0.000000  0.000000      2.000000
  0.000000  0.095945 -0.029826      2.000000
  0.027104  0.111936 -0.034796      4.000000
  0.054209  0.127927 -0.039767      4.000000
 -0.216834 -0.031982  0.009942      4.000000
 -0.189730 -0.015991  0.004971      4.000000
 -0.162626  0.000000  0.000000      2.000000
  0.000000  0.127927 -0.039767      2.000000
  0.027104  0.143918 -0.044738      4.000000
 -0.243938 -0.015991  0.004971      4.000000
 -0.216834  0.000000  0.000000      2.000000
  0.000000  0.159909 -0.049709      2.000000
 -0.271043 -0.000000  0.000000      2.000000
  0.000000  0.000000  0.029989      2.000000
  0.027104  0.015991  0.025018      4.000000
  0.054209  0.031982  0.020047      4.000000
  0.081313  0.047973  0.015076      4.000000
  0.108417  0.063963  0.010105      4.000000
  0.135521  0.079954  0.005134      4.000000
 -0.135521 -0.079954  0.054843      4.000000
 -0.108417 -0.063963  0.049872      4.000000
 -0.081313 -0.047973  0.044901      4.000000
 -0.054209 -0.031982  0.039930      4.000000
 -0.027104 -0.015991  0.034959      4.000000
  0.000000  0.031982  0.020047      2.000000
  0.027104  0.047973  0.015076      4.000000
  0.054209  0.063963  0.010105      4.000000
  0.081313  0.079954  0.005134      4.000000
  0.108417  0.095945  0.000163      4.000000
 -0.162626 -0.063963  0.049872      4.000000
 -0.135521 -0.047973  0.044901      4.000000
 -0.108417 -0.031982  0.039930      4.000000
 -0.081313 -0.015991  0.034959      4.000000
 -0.054209  0.000000  0.029989      4.000000
  0.000000  0.063963  0.010105      2.000000
  0.027104  0.079954  0.005134      4.000000
  0.054209  0.095945  0.000163      4.000000
[...]
  0.000000 -0.159909  0.139675      2.000000
  0.027104 -0.143918  0.134704      4.000000
  0.054209 -0.127927  0.129733      4.000000
  0.081313 -0.111936  0.124762      4.000000
  0.108417 -0.095945  0.119791      4.000000
  0.000000 -0.127927  0.129733      2.000000
  0.027104 -0.111936  0.124762      4.000000
  0.054209 -0.095945  0.119791      4.000000
  0.081313 -0.079954  0.114820      4.000000
[...]
 k-point ** :   0.2727 0.2727 0.2857  plane waves:    1218
 k-point ** :   0.3636 0.2727 0.2857  plane waves:    1222
 k-point ** :   0.4545 0.2727 0.2857  plane waves:    1224
 k-point ** :  -0.4545 0.2727 0.2857  plane waves:    1226
 k-point ** :  -0.3636 0.2727 0.2857  plane waves:    1231
 k-point ** :  -0.2727 0.2727 0.2857  plane waves:    1227
 k-point ** :  -0.1818 0.2727 0.2857  plane waves:    1220
 k-point ** :  -0.0909 0.2727 0.2857  plane waves:    1220
 k-point ** :   0.3636 0.3636 0.2857  plane waves:    1223
 k-point ** :   0.4545 0.3636 0.2857  plane waves:    1229
 k-point ** :  -0.4545 0.3636 0.2857  plane waves:    1222
 k-point ** :  -0.3636 0.3636 0.2857  plane waves:    1225
 k-point ** :  -0.2727 0.3636 0.2857  plane waves:    1227
 k-point ** :  -0.1818 0.3636 0.2857  plane waves:    1223
 k-point ** :  -0.0909 0.3636 0.2857  plane waves:    1220
 k-point ** :   0.4545 0.4545 0.2857  plane waves:    1225
 k-point ** :  -0.4545 0.4545 0.2857  plane waves:    1230
 k-point ** :  -0.3636 0.4545 0.2857  plane waves:    1229
 k-point ** :  -0.2727 0.4545 0.2857  plane waves:    1225
 k-point ** :  -0.1818 0.4545 0.2857  plane waves:    1229
 k-point ** :  -0.0909 0.4545 0.2857  plane waves:    1223
 k-point ** :  -0.4545-0.4545 0.2857  plane waves:    1225
 k-point ** :  -0.3636-0.4545 0.2857  plane waves:    1231
 k-point ** :  -0.2727-0.4545 0.2857  plane waves:    1231
 k-point ** :  -0.1818-0.4545 0.2857  plane waves:    1219
 k-point ** :  -0.0909-0.4545 0.2857  plane waves:    1224
 k-point ** :  -0.3636-0.3636 0.2857  plane waves:    1230
[...]
 k-point ** :  -0.4545-0.4545 0.4286  plane waves:    1231
 k-point ** :  -0.3636-0.4545 0.4286  plane waves:    1235
 k-point ** :  -0.2727-0.4545 0.4286  plane waves:    1229
 k-point ** :  -0.1818-0.4545 0.4286  plane waves:    1224
 k-point ** :  -0.0909-0.4545 0.4286  plane waves:    1224
 k-point ** :  -0.3636-0.3636 0.4286  plane waves:    1230
 k-point ** :  -0.2727-0.3636 0.4286  plane waves:    1227
 k-point ** :  -0.1818-0.3636 0.4286  plane waves:    1214
 k-point ** :  -0.0909-0.3636 0.4286  plane waves:    1217
 k-point ** :  -0.2727-0.2727 0.4286  plane waves:    1229
 k-point ** :  -0.1818-0.2727 0.4286  plane waves:    1219
 k-point ** :  -0.0909-0.2727 0.4286  plane waves:    1218
 k-point ** :  -0.1818-0.1818 0.4286  plane waves:    1212
 k-point ** :  -0.0909-0.1818 0.4286  plane waves:    1220
 k-point ** :  -0.0909-0.0909 0.4286  plane waves:    1218

 maximum and minimum number of plane-waves per node :       219      190

 maximum number of plane-waves:      1239
 maximum index in each direction:
   IXMAX=    6   IYMAX=    6   IZMAX=    9
   IXMIN=   -6   IYMIN=   -6   IZMIN=   -9

 real space projection operators:
  max/ min on nodes  :        275.81        247.52

 parallel 3D FFT for wavefunctions:
    minimum data exchange during FFTs selected (reduces bandwidth)
 parallel 3D FFT for charge:
    minimum data exchange during FFTs selected (reduces bandwidth)

 Broyden mixing: mesh for mixing (old mesh)
   NGX = 13   NGY = 13   NGZ = 19
  (NGX  = 56   NGY  = 56   NGZ  = 80)
  gives a total of   3211 points

 initial charge density was supplied:
 charge density of overlapping atoms calculated
 number of electron      18.0000000 magnetization       0.0000000
 keeping initial charge density in first step

 Maximum index for non-local projection operator         1414
 Maximum index for augmentation-charges          743 (set IRDMAX)

 First call to EWALD:  gamma=   0.497
 Maximum number of real-space cells 3x 3x 2
 Maximum number of reciprocal cells 3x 3x 4

--------------------------------------- Iteration      1(   1)  ---------------------------------------

 BZINTS: Fermi energy: 10.550306; 18.000000 electrons
         Band energy:-125.149557;  BLOECHL correction: -0.131523

 eigenvalue-minimisations  : 14976
 total energy-change (2. order) : 0.7843571E+02  (-0.8572498E+03)
 number of electron      18.0000000 magnetization       0.0000000
 augmentation part       18.0000000 magnetization       0.0000000

 Free energy of the ion-electron system (eV)
  alpha Z        PSCENC =        28.66254066
  Ewald energy   TEWEN  =      -591.04747885
  -Hartree energ DENC   =      -282.83816321
  -exchange      EXHF   =         0.00000000
  -V(xc)+E(xc)   XCENC  =        71.40570067
  PAW double counting   =       694.55982054     -713.53821353
  entropy T*S    EENTRO =         0.00000000
  eigenvalues    EBANDS =      -125.14955734
  atomic energy  EATOM  =       996.38105808
  Solvation  Ediel_sol  =         0.00000000
  free energy    TOTEN  =        78.43570701 eV

  energy without entropy =       78.43570701  energy(sigma->0) =       78.43570701

[...]

 eigenvalue-minimisations  : 20560
 total energy-change (2. order) :-0.1028786E+03  (-0.9933449E+02)
 number of electron      18.0000000 magnetization       0.0000000
 augmentation part       18.0000000 magnetization       0.0000000

[...]

 Broyden mixing:
  rms(total) = 0.10030E+01    rms(broyden)= 0.10027E+01
  rms(prec ) = 0.18210E+01
  weight for this iteration     100.00

[...]

 eigenvalues of (default mixing * dielectric matrix)
  average eigenvalue GAMMA=   1.0757
  1.0757

[...]

 average (electrostatic) potential at core
  the test charge radii are     0.7079  0.7089
  (the norm of the test charge is              1.0000)
       1 -62.3853       2 -67.4601       3 -67.4601       4 -71.2537

 E-fermi :   0.9003     XC(G=0):  -8.9381     alpha+bet : -9.0326

 spin component 1

 k-point     1 :       0.0000    0.0000    0.0000
  band No.  band energies     occupation
      1     -43.3084      1.00000
      2     -21.7653      1.00000
      3     -17.3997      1.00000
      4      -6.7475      1.00000
      5      -5.1740      1.00000
      6      -5.1109      1.00000
      7      -3.6667      1.00000
      8       0.6262      1.00000
      9       0.6977      1.00000
     10       6.3091      0.00000
     11       6.3412      0.00000
     12       6.6742      0.00000
     13      10.1174      0.00000
     14      11.5322      0.00000
     15      14.2549      0.00000
     16      14.5416      0.00000

[...]

 soft charge-density along one line, spin component           1
         0         1         2         3         4         5         6         7         8         9
 total charge-density along one line

[...]

------------------------ aborting loop because EDIFF is reached ----------------------------------------

 total charge

# of ion       s       p       d       tot
    1        2.007   0.035   0.000   2.042
    2        1.286   2.568   0.000   3.854
    3        1.286   2.568   0.000   3.854
    4        1.284   2.736   0.000   4.020
tot          5.863   7.906   0.000  13.769

 magnetization (x)

[...]

  FORCE on cell =-STRESS in cart. coord.  units (eV):
  Direction    XX          YY          ZZ          XY          YZ          ZX
  Alpha Z    28.66254    28.66254    28.66254
  Ewald    -381.60035  -349.78488   140.33714    -0.00000  -110.67064     0.00000
  Hartree    44.64941    58.12989   204.04241     0.00000   -34.31186     0.00000
  E(xc)     -78.68505   -78.56762   -76.61884     0.00000    -0.43696     0.00000
  Local      61.46232    19.08493  -549.16799    -0.00000   130.37826    -0.00000
  n-local   -48.96326   -49.19936   -52.49546     0.30340     0.84739     0.29123
  augment    21.85308    21.80628    20.56483     0.00000     0.24933    -0.00000
  Kinetic   352.59691   349.80758   284.66029    -1.48277    13.96762    -0.43729
  Fock        0.00000     0.00000     0.00000     0.00000     0.00000     0.00000
  Total      -0.02438    -0.06064    -0.01507     0.00000     0.02314     0.00000
  in kB      -0.86020    -2.13911    -0.53162     0.00000     0.81623     0.00000

 VOLUME and BASIS-vectors are now :
  energy-cutoff  :      520.00
  volume of cell :       45.42
      direct lattice vectors                 reciprocal lattice vectors
     1.677025000  2.842534000  0.000000000     0.298147016  0.175899391 -0.054680110
    -1.677025000  2.842534000  0.000000000    -0.298147016  0.175899391 -0.054680110
     0.000000000  1.480851000  4.763721000     0.000000000  0.000000000  0.209919934

[...]

 FORCES acting on ions
    electron-ion (+dipol)            ewald-force                    non-local-force                 convergence-correction
   -.291E-14 0.184E-14 -.876E-14   -.612E-15 -.634E-15 -.189E-14   -.265E-22 0.132E-22 0.000E+00   -.308E-14 -.603E-14 0.626E-14
   0.645E-13 -.365E+02 0.180E+03   -.538E-15 0.452E+02 -.221E+03   0.000E+00 -.869E+01 0.408E+02   -.293E-13 0.124E-02 -.135E-01
   0.365E-12 0.365E+02 -.180E+03   0.221E-14 -.452E+02 0.221E+03   0.000E+00 0.869E+01 -.408E+02   0.413E-13 -.124E-02 0.135E-01
   -.850E-13 0.154E-11 0.851E-12   -.242E-15 -.787E-15 -.160E-16   -.331E-23 0.132E-22 0.000E+00   0.767E-14 0.863E-14 -.171E-13
   0.342E-12 0.254E-11 0.610E-12   0.820E-15 -.787E-15 -.160E-16   -.298E-22 0.132E-22 0.000E+00   0.165E-13 -.667E-15 -.184E-13

 POSITION                                       TOTAL-FORCE (eV/Angst)
      0.00000      0.00000      0.00000         0.000000     -0.000000      0.000000
      0.00000      3.82422      1.22288         0.000000      0.005059     -0.036278
      0.00000      3.34170      3.54084         0.000000     -0.005059      0.036278
      0.00000      3.58296      2.38186         0.000000     -0.000000      0.000000
    total drift:                                0.000000      0.000000      0.000000

  FREE ENERGIE OF THE ION-ELECTRON SYSTEM (eV)
  free  energy   TOTEN  =       -27.45931549 eV

  energy  without entropy=      -27.45931549  energy(sigma->0) =      -27.45931549

[...]

 d Force =-0.1185883E-03[-0.367E-03, 0.129E-03]  d Energy =-0.1641857E-04-0.102E-03
 d Force = 0.7935294E+00[ 0.792E+00, 0.795E+00]  d Ewald  = 0.1074696E+01-0.281E+00

 Steepest descent step on ions:
 trial-energy change:    0.000016  1 .order    0.000011   -0.000197    0.000220
  (g-gl).g = 0.197E-03      g.g   = 0.197E-03  gl.gl    = 0.000E+00
 g(Force)  = 0.129E-03   g(Stress)= 0.672E-04 ortho     = 0.000E+00
 gamma     =   0.00000
 trial     =   1.00000
 opt step  =   0.47241  (harmonic =   0.47241) maximal distance =0.00082678
 next E    =   -27.459362   (d E  =  -0.00005)

 real space projection operators:
  max/ min on nodes  :        276.31        247.64

[...]

 eigenvalue-minimisations  : 16120
 total energy-change (2. order) :-0.1398404E-03  (-0.8211681E-03)
 number of electron      17.9999991 magnetization       0.0000000
 augmentation part        1.6319929 magnetization      -0.0000004

[...]

 Broyden mixing:
  rms(total) = 0.76089E-03    rms(broyden)= 0.76061E-03
  rms(prec ) = 0.10145E-02
  weight for this iteration     100.00

 eigenvalues of (default mixing * dielectric matrix)
  average eigenvalue GAMMA=   1.4854
  1.4854  1.4854

[...]

--------------------------------------- Iteration      3(   4)  ---------------------------------------

[...]

 eigenvalue-minimisations  :  8184
 total energy-change (2. order) : 0.7630415E-06  (-0.8009737E-07)
 number of electron      17.9999991 magnetization       0.0000000
 augmentation part        1.6313233 magnetization      -0.0000003

 Free energy of the ion-electron system (eV)
  alpha Z        PSCENC =        28.67889372
  Ewald energy   TEWEN  =      -591.55548074
  -Hartree energ DENC   =      -306.43574020
  -exchange      EXHF   =         0.00000000
  -V(xc)+E(xc)   XCENC  =        73.17994501
  PAW double counting   =      1700.35749641    -1720.41676126
  entropy T*S    EENTRO =         0.00000000
  eigenvalues    EBANDS =      -207.64877206
  atomic energy  EATOM  =       996.38105808
  Solvation  Ediel_sol  =         0.00000000
  free energy    TOTEN  =       -27.45936105 eV

  energy without entropy =      -27.45936105  energy(sigma->0) =      -27.45936105

 average (electrostatic) potential at core
  the test charge radii are     0.7079  0.7089
  (the norm of the test charge is              1.0000)
       1 -62.3784       2 -67.4594       3 -67.4594       4 -71.2470

 E-fermi :   0.9041     XC(G=0):  -8.9416     alpha+bet : -9.0377

[...]

 spin component 2

[...]

 k-point   234 :      -0.0909   -0.0909    0.4286
  band No.  band energies     occupation
      1     -43.3009      1.00000
      2     -21.7174      1.00000
      3     -17.4420      1.00000
      4      -5.5801      1.00000
      5      -5.2429      1.00000
      6      -5.2197      1.00000
      7      -5.0213      1.00000
      8       0.6852      1.00000
      9       0.8702      1.00000
     10       5.9379      0.00000
     11       6.2403      0.00000
     12       6.7002      0.00000
     13      10.9547      0.00000
     14      12.1885      0.00000
     15      13.6230      0.00000
     16      13.7111      0.00000

[...]

 soft charge-density along one line, spin component           2
         0         1         2         3         4         5         6         7         8         9
 total charge-density along one line

------------------------ aborting loop because EDIFF is reached ----------------------------------------

[...]

  FORCE on cell =-STRESS in cart. coord.  units (eV):
  Direction    XX          YY          ZZ          XY          YZ          ZX
  Alpha Z    28.67889    28.67889    28.67889
  Ewald    -381.65461  -349.78726   139.88583     0.00000  -110.50134     0.00000
  Hartree    44.50998    58.03358   203.89693     0.00000   -34.28004     0.00000
  E(xc)     -78.67649   -78.55872   -76.61073     0.00000    -0.43664     0.00000
  Local      61.66532    19.18549  -548.69794     0.00000   130.21997    -0.00000
  n-local   -48.95953   -49.19630   -52.47787     0.30405     0.84499     0.29179
  augment    21.84651    21.79993    20.56117     0.00000     0.24842    -0.00000
  Kinetic   352.57525   349.79302   284.60912    -1.48544    13.95681    -0.43776
  Fock        0.00000     0.00000     0.00000     0.00000     0.00000     0.00000
  Total      -0.01467    -0.05136    -0.15459     0.00000     0.05217     0.00000
  in kB      -0.51772    -1.81271    -5.45648     0.00000     1.84148     0.00000

 VOLUME and BASIS-vectors are now :
  energy-cutoff  :      520.00
  volume of cell :       45.39
      direct lattice vectors                 reciprocal lattice vectors
     1.676792009  2.841551931  0.000374732     0.298188444  0.175967398 -0.054708005
    -1.676792009  2.841551931  0.000374732    -0.298188444  0.175967398 -0.054708005
     0.000000000  1.480967380  4.763507194     0.000000000 -0.000027686  0.209937964

  length of vectors
     3.299401303  3.299401303  4.988413092     0.350533649  0.350533649  0.209937966

 FORCES acting on ions
    electron-ion (+dipol)            ewald-force                    non-local-force                 convergence-correction
   -.233E-14 0.251E-14 -.849E-14   0.547E-15 -.176E-15 -.920E-14   0.000E+00 0.124E-23 0.000E+00   0.396E-14 -.189E-13 0.361E-14
   0.793E-12 -.364E+02 0.180E+03   0.596E-15 0.450E+02 -.221E+03   0.000E+00 -.867E+01 0.408E+02   -.103E-12 0.853E-03 -.110E-02
   -.101E-11 0.364E+02 -.180E+03   -.478E-14 -.450E+02 0.221E+03   0.000E+00 0.867E+01 -.408E+02   0.644E-13 -.853E-03 0.110E-02
   -.838E-13 0.154E-11 0.849E-12   -.163E-15 0.812E-14 0.568E-13   0.000E+00 0.000E+00 0.000E+00   -.108E-13 0.100E-12 -.324E-14
   -.303E-12 -.787E-12 -.124E-11   -.380E-14 0.101E-14 0.178E-17   0.000E+00 -.178E-14 0.000E+00   -.457E-13 0.232E-12 0.838E-13

 POSITION                                       TOTAL-FORCE (eV/Angst)
      0.00000     -0.00000     -0.00000         0.000000     -0.000000      0.000000
      0.00000      3.82318      1.22245         0.000000     -0.009003      0.029038
      0.00000      3.34089      3.54180         0.000000      0.009003     -0.029038
      0.00000      3.58204      2.38213         0.000000     -0.000000      0.000000
    total drift:                               -0.000000     -0.000000     -0.000000

  FREE ENERGIE OF THE ION-ELECTRON SYSTEM (eV)
  free  energy   TOTEN  =       -27.45936105 eV

  energy  without entropy=      -27.45936105  energy(sigma->0) =      -27.45936105

 d Force = 0.1247252E-03[ 0.560E-04, 0.193E-03]  d Energy = 0.6197574E-04 0.627E-04
 d Force =-0.4183727E+00[-0.419E+00,-0.418E+00]  d Ewald  =-0.5666942E+00 0.148E+00

 reached required accuracy - stopping structural energy minimisation

 total charge

[...]

 magnetization (x)

# of ion       s       p       d       tot
    1        0.000  -0.000   0.000  -0.000
    2       -0.000  -0.000   0.000  -0.000
    3       -0.000  -0.000   0.000  -0.000
    4        0.000  -0.000   0.000  -0.000
tot          0.000  -0.000   0.000  -0.000

 BZINTS: Fermi energy:  0.904140; 18.000000 electrons
         Band energy:-207.648772;  BLOECHL correction:  0.000000