 vasp.5.4.4.18Apr17-6-g9f103f2a35 (build Aug 12 2020 11:57:02) complex

 executed on             LinuxIFC date 2021.01.31  03:09:20

 INCAR:
 POTCAR:    PAW_PBE Li_sv 10Sep2004
 POTCAR:    PAW_PBE P 06Sep2000
 POTCAR:    PAW_PBE N 08Apr2002
 POTCAR:    PAW_PBE O 08Apr2002
 POTCAR:    PAW_PBE Li_sv 10Sep2004
   VRHFIN =Li: 1s2s2p

   TITEL  = PAW_PBE Li_sv 10Sep2004
   POMASS =    7.010; ZVAL   =    3.000    mass and valenz
   ENMAX  =  499.034; ENMIN  =  374.276 eV

 POTCAR:    PAW_PBE P 06Sep2000
   VRHFIN =P : s2p3

   TITEL  = PAW_PBE P 06Sep2000
   POMASS =   30.974; ZVAL   =    5.000    mass and valenz
   ENMAX  =  255.040; ENMIN  =  191.280 eV

 POTCAR:    PAW_PBE N 08Apr2002
   VRHFIN =N: s2p3

   TITEL  = PAW_PBE N 08Apr2002
   POMASS =   14.001; ZVAL   =    5.000    mass and valenz
   ENMAX  =  400.000; ENMIN  =  300.000 eV

 POTCAR:    PAW_PBE O 08Apr2002
   VRHFIN =O: s2p4

   TITEL  = PAW_PBE O 08Apr2002
   POMASS =   16.000; ZVAL   =    6.000    mass and valenz
   ENMAX  =  400.000; ENMIN  =  300.000 eV

 Optimization of the real space projectors (new method)

 maximal supplied QI-value         = 22.11
 optimisation between [QCUT,QGAM] = [ 11.50, 23.22] = [ 37.02,150.92] Ry
 Optimized for a Real-space Cutoff    1.08 Angstroem

   l    n(q)    QCUT    max X(q) W(low)/X(q) W(high)/X(q)  e(spline)
   0      7    11.497    10.506    0.36E-04    0.62E-04    0.14E-07
   0      7    11.497     8.367    0.65E-04    0.14E-03    0.28E-07
   1      7    11.497     8.983    0.21E-03    0.43E-03    0.90E-07
 Optimization of the real space projectors (new method)

[...]

   l    n(q)    QCUT    max X(q) W(low)/X(q) W(high)/X(q)  e(spline)
   0     10    11.561    79.467    0.46E-04    0.78E-04    0.61E-06
   0     10    11.561    66.151    0.45E-04    0.77E-04    0.61E-06
   1      9    11.561    18.886    0.22E-03    0.13E-03    0.12E-05
   1      9    11.561    13.488    0.23E-03    0.13E-03    0.12E-05
 Optimization of the real space projectors (new method)

 maximal supplied QI-value         = 24.76
 optimisation between [QCUT,QGAM] = [ 11.64, 23.27] = [ 37.91,151.63] Ry
 Optimized for a Real-space Cutoff    1.14 Angstroem

   l    n(q)    QCUT    max X(q) W(low)/X(q) W(high)/X(q)  e(spline)
   0      8    11.635    20.381    0.10E-03    0.33E-03    0.24E-06
   0      8    11.635    15.268    0.11E-03    0.35E-03    0.26E-06
   1      7    11.635     5.964    0.24E-03    0.31E-03    0.30E-06
   1      7    11.635     5.382    0.22E-03    0.25E-03    0.26E-06
  PAW_PBE Li_sv 10Sep2004               :
  PAW_PBE P 06Sep2000                   :
  PAW_PBE N 08Apr2002                   :
  PAW_PBE O 08Apr2002                   :

 POSCAR: Li4 P2 N2 O4
  positions in direct lattice
 exchange correlation table for  LEXCH =        8
   RHO(1)=    0.500       N(1)  =     2000
   RHO(2)=  100.500       N(2)  =     4000

 ion  position               nearest neighbor table
   1  0.325  0.994  0.502-   9 1.99  10 2.00  12 2.01   7 2.10
   2  0.994  0.325  0.502-  10 1.99   9 2.00  11 2.01   7 2.10
   3  0.675  0.006  0.002-  11 1.99  12 2.00  10 2.01   8 2.10
   4  0.006  0.675  0.002-  12 1.99  11 2.00   9 2.01   8 2.10
   5  0.654  0.654  0.499-   9 1.57  10 1.57   7 1.64   8 1.64   6 2.91   6 2.91
   6  0.346  0.346  0.999-  11 1.57  12 1.57   8 1.64   7 1.64   5 2.91   5 2.91
   7  0.387  0.387  0.341-   5 1.64   6 1.64   1 2.10   2 2.10
   8  0.613  0.613  0.841-   6 1.64   5 1.64   3 2.10   4 2.10
   9  0.944  0.666  0.419-   5 1.57   1 1.99   2 2.00   4 2.01
  10  0.666  0.944  0.419-   5 1.57   2 1.99   1 2.00   3 2.01
  11  0.056  0.334  0.919-   6 1.57   3 1.99   4 2.00   2 2.01
  12  0.334  0.056  0.919-   6 1.57   4 1.99   3 2.00   1 2.01

  LATTYP: Found a base centered orthorhombic cell.
 ALAT       =     5.4610260000
 B/A-ratio  =     1.6765838507
 C/A-ratio  =     0.8696111317

  Lattice vectors:

 A1 = (   2.7305130000,  -4.5779340000,   0.0000000000)
 A2 = (   2.7305130000,   4.5779340000,   0.0000000000)
 A3 = (   0.0000000000,   0.0000000000,   4.7489690000)

Analysis of symmetry for initial positions (statically):
 Subroutine PRICEL returns:
 Original cell was already a primitive cell.

 Routine SETGRP: Setting up the symmetry group for a
 base centered orthorhombic supercell.

 Subroutine GETGRP returns: Found  4 space group operations
 (whereof  2 operations were pure point group operations)
 out of a pool of  8 trial point group operations.

The static configuration has the point symmetry C_1h.
 The point group associated with its full space group is C_2v.

Analysis of symmetry for dynamics (positions and initial velocities):
 Subroutine PRICEL returns:
 Original cell was already a primitive cell.

[...]

The dynamic configuration has the point symmetry C_1h.
 The point group associated with its full space group is C_2v.

Analysis of structural, dynamic, and magnetic symmetry:
 Subroutine PRICEL returns:
 Original cell was already a primitive cell.

 Routine SETGRP: Setting up the symmetry group for a
 base centered orthorhombic supercell.

 Subroutine GETGRP returns: Found  4 space group operations
 (whereof  2 operations were pure point group operations)
 out of a pool of  8 trial point group operations.

The magnetic configuration has the point symmetry C_1h.
 The point group associated with its full space group is C_2v.

 Subroutine INISYM returns: Found  4 space group operations
 (whereof  2 operations are pure point group operations),
 and found     1 'primitive' translations

 KPOINTS: Fully automatic kpoint scheme

Automatic generation of k-mesh.
 generate k-points for:    7    7    7
Space group operators:
 irot       det(A)        alpha          n_x          n_y          n_z        tau_x        tau_y        tau_z
    1     1.000000     0.000000     1.000000     0.000000     0.000000     0.000000     0.000000     0.000000
    2    -1.000000   180.000000     0.000000     1.000000     0.000000     0.000000     0.000000     0.000000
    3     1.000000   180.000000     0.000000     0.000000     1.000000     0.000000     0.000000     0.500000
    4    -1.000000   180.000000     1.000000     0.000000     0.000000     0.000000     0.000000     0.500000

 Subroutine IBZKPT returns following result:

 Found     64 irreducible k-points:

 Following reciprocal coordinates:
            Coordinates               Weight
  0.000000  0.000000  0.000000      1.000000
  0.142857  0.000000  0.000000      4.000000
  0.285714  0.000000  0.000000      4.000000
  0.428571  0.000000  0.000000      4.000000
  0.142857  0.142857  0.000000      2.000000
  0.285714  0.142857  0.000000      4.000000
  0.428571  0.142857  0.000000      4.000000
 -0.428571  0.142857  0.000000      4.000000
 -0.285714  0.142857  0.000000      4.000000
 -0.142857  0.142857  0.000000      2.000000
  0.285714  0.285714  0.000000      2.000000
  0.428571  0.285714  0.000000      4.000000
 -0.428571  0.285714  0.000000      4.000000
 -0.285714  0.285714  0.000000      2.000000
  0.428571  0.428571  0.000000      2.000000
 -0.428571  0.428571  0.000000      2.000000
  0.000000  0.000000  0.142857      2.000000
  0.142857  0.000000  0.142857      8.000000
  0.285714  0.000000  0.142857      8.000000
  0.428571  0.000000  0.142857      8.000000
  0.142857  0.142857  0.142857      4.000000
  0.285714  0.142857  0.142857      8.000000
  0.428571  0.142857  0.142857      8.000000
 -0.428571  0.142857  0.142857      8.000000
 -0.285714  0.142857  0.142857      8.000000
 -0.142857  0.142857  0.142857      4.000000
  0.285714  0.285714  0.142857      4.000000
  0.428571  0.285714  0.142857      8.000000
 -0.428571  0.285714  0.142857      8.000000
 -0.285714  0.285714  0.142857      4.000000
  0.428571  0.428571  0.142857      4.000000
 -0.428571  0.428571  0.142857      4.000000
  0.000000  0.000000  0.285714      2.000000
  0.142857  0.000000  0.285714      8.000000
  0.285714  0.000000  0.285714      8.000000
  0.428571  0.000000  0.285714      8.000000
  0.142857  0.142857  0.285714      4.000000
  0.285714  0.142857  0.285714      8.000000
  0.428571  0.142857  0.285714      8.000000
 -0.428571  0.142857  0.285714      8.000000
 -0.285714  0.142857  0.285714      8.000000
 -0.142857  0.142857  0.285714      4.000000
  0.285714  0.285714  0.285714      4.000000
  0.428571  0.285714  0.285714      8.000000
 -0.428571  0.285714  0.285714      8.000000
 -0.285714  0.285714  0.285714      4.000000
  0.428571  0.428571  0.285714      4.000000
 -0.428571  0.428571  0.285714      4.000000
  0.000000  0.000000  0.428571      2.000000
  0.142857  0.000000  0.428571      8.000000
  0.285714  0.000000  0.428571      8.000000
  0.428571  0.000000  0.428571      8.000000
  0.142857  0.142857  0.428571      4.000000
  0.285714  0.142857  0.428571      8.000000
  0.428571  0.142857  0.428571      8.000000
 -0.428571  0.142857  0.428571      8.000000
 -0.285714  0.142857  0.428571      8.000000
 -0.142857  0.142857  0.428571      4.000000
  0.285714  0.285714  0.428571      4.000000
  0.428571  0.285714  0.428571      8.000000
 -0.428571  0.285714  0.428571      8.000000
 -0.285714  0.285714  0.428571      4.000000
  0.428571  0.428571  0.428571      4.000000
 -0.428571  0.428571  0.428571      4.000000

 Following cartesian coordinates:
            Coordinates               Weight
  0.000000  0.000000  0.000000      1.000000
  0.026159 -0.015603  0.000000      4.000000
  0.052319 -0.031206  0.000000      4.000000
  0.078478 -0.046808  0.000000      4.000000
  0.052319  0.000000  0.000000      2.000000
  0.078478 -0.015603  0.000000      4.000000
  0.104638 -0.031206  0.000000      4.000000
 -0.052319  0.062411  0.000000      4.000000
 -0.026159  0.046808  0.000000      4.000000
  0.000000  0.031206  0.000000      2.000000
  0.104638  0.000000  0.000000      2.000000
  0.130797 -0.015603  0.000000      4.000000
 -0.026159  0.078014  0.000000      4.000000
  0.000000  0.062411  0.000000      2.000000
  0.156956  0.000000  0.000000      2.000000
  0.000000  0.093617  0.000000      2.000000
  0.000000  0.000000  0.030082      2.000000
  0.026159 -0.015603  0.030082      8.000000
  0.052319 -0.031206  0.030082      8.000000
  0.078478 -0.046808  0.030082      8.000000
  0.052319  0.000000  0.030082      4.000000
  0.078478 -0.015603  0.030082      8.000000
  0.104638 -0.031206  0.030082      8.000000
 -0.052319  0.062411  0.030082      8.000000
 -0.026159  0.046808  0.030082      8.000000
  0.000000  0.031206  0.030082      4.000000
  0.104638  0.000000  0.030082      4.000000
  0.130797 -0.015603  0.030082      8.000000
 -0.026159  0.078014  0.030082      8.000000
  0.000000  0.062411  0.030082      4.000000
  0.156956  0.000000  0.030082      4.000000
  0.000000  0.093617  0.030082      4.000000
  0.000000  0.000000  0.060163      2.000000
  0.026159 -0.015603  0.060163      8.000000
  0.052319 -0.031206  0.060163      8.000000
  0.078478 -0.046808  0.060163      8.000000
  0.052319  0.000000  0.060163      4.000000
  0.078478 -0.015603  0.060163      8.000000
  0.104638 -0.031206  0.060163      8.000000
 -0.052319  0.062411  0.060163      8.000000
 -0.026159  0.046808  0.060163      8.000000
  0.000000  0.031206  0.060163      4.000000
[...]

[...]

------------------------ aborting loop because EDIFF is reached ----------------------------------------

 total charge

# of ion       s       p       d       tot
    1        2.021   0.056   0.000   2.077
    2        2.022   0.055   0.000   2.077
    3        2.021   0.056   0.000   2.077
    4        2.022   0.055   0.000   2.077
    5        0.919   1.484   0.000   2.403
    6        0.919   1.484   0.000   2.403
    7        1.231   2.701   0.000   3.932
    8        1.231   2.703   0.000   3.934
    9        1.561   3.597   0.000   5.158
   10        1.558   3.595   0.000   5.153
   11        1.561   3.597   0.000   5.158
   12        1.558   3.594   0.000   5.152
tot         18.624  22.978   0.000  41.602

 magnetization (x)

[...]

  FORCE on cell =-STRESS in cart. coord.  units (eV):
  Direction    XX          YY          ZZ          XY          YZ          ZX
  Alpha Z    97.41639    97.41639    97.41639
  Ewald    -776.26520  -773.67195  -766.17198    -0.00000     0.00000    -0.00000
  Hartree   298.77291   289.12594   330.18280    -0.00000     0.00000    -0.00000
  E(xc)    -257.41856  -257.45482  -257.47306    -0.00000     0.00000     0.00000
  Local    -358.95522  -348.45694  -406.30679     0.00000     0.00000     0.00000
  n-local   -92.28498   -93.53490   -90.17994     0.05659     0.02712     0.01724
  augment    82.27007    81.13019    82.82317     0.00000     0.00000    -0.00000
  Kinetic  1006.00182  1004.74859  1009.60366    -0.39146    -0.21300    -0.14683
  Fock        0.00000     0.00000     0.00000     0.00000     0.00000     0.00000
  Total      -0.46276    -0.69749    -0.10576     0.00000     0.00000     0.00000
  in kB      -6.24482    -9.41252    -1.42721     0.00000     0.00000     0.00000

 VOLUME and BASIS-vectors are now :
  energy-cutoff  :      520.00
  volume of cell :      118.73
      direct lattice vectors                 reciprocal lattice vectors
     2.730513000 -4.577934000  0.000000000     0.183115773 -0.109219574  0.000000000
     2.730513000  4.577934000  0.000000000     0.183115773  0.109219574  0.000000000
     0.000000000  0.000000000  4.748969000     0.000000000  0.000000000  0.210572021

[...]

 FORCES acting on ions
    electron-ion (+dipol)            ewald-force                    non-local-force                 convergence-correction
   0.248E+01 0.341E+01 0.685E+01   -.225E+01 -.311E+01 -.653E+01   -.238E+00 -.289E+00 -.328E+00   0.143E-03 0.994E-04 -.199E-04
   0.248E+01 -.341E+01 0.685E+01   -.225E+01 0.311E+01 -.653E+01   -.238E+00 0.289E+00 -.328E+00   0.143E-03 -.994E-04 -.199E-04
   -.248E+01 -.341E+01 0.685E+01   0.225E+01 0.311E+01 -.653E+01   0.238E+00 0.289E+00 -.328E+00   -.143E-03 -.994E-04 -.199E-04
   -.248E+01 0.341E+01 0.685E+01   0.225E+01 -.311E+01 -.653E+01   0.238E+00 -.289E+00 -.328E+00   -.143E-03 0.994E-04 -.199E-04
   0.212E+02 0.730E-12 -.154E+02   -.218E+02 0.142E-13 0.151E+02   0.665E+00 0.000E+00 0.367E+00   -.121E-02 -.306E-13 0.236E-03
   -.212E+02 -.369E-12 -.154E+02   0.218E+02 0.142E-13 0.151E+02   -.665E+00 0.000E+00 0.367E+00   0.121E-02 -.316E-13 0.236E-03
   0.615E+02 -.103E-12 -.377E+02   -.767E+02 -.355E-14 0.483E+02   0.151E+02 0.000E+00 -.106E+02   0.276E-03 -.579E-13 0.552E-03
   -.615E+02 0.103E-12 -.377E+02   0.767E+02 -.533E-14 0.483E+02   -.151E+02 0.000E+00 -.106E+02   -.276E-03 -.395E-13 0.552E-03
   -.581E+02 0.934E+02 0.183E+02   0.744E+02 -.118E+03 -.252E+02   -.163E+02 0.251E+02 0.686E+01   -.567E-06 -.883E-03 -.404E-03
   -.581E+02 -.934E+02 0.183E+02   0.744E+02 0.118E+03 -.252E+02   -.163E+02 -.251E+02 0.686E+01   -.567E-06 0.883E-03 -.404E-03
   0.581E+02 -.934E+02 0.183E+02   -.744E+02 0.118E+03 -.252E+02   0.163E+02 -.251E+02 0.686E+01   0.567E-06 0.883E-03 -.404E-03
   0.581E+02 0.934E+02 0.183E+02   -.744E+02 -.118E+03 -.252E+02   0.163E+02 0.251E+02 0.686E+01   0.567E-06 -.883E-03 -.404E-03
   0.192E-05 0.114E-11 -.572E+01   0.284E-13 0.284E-13 -.711E-14   0.711E-14 -.355E-14 0.573E+01   -.811E-14 -.225E-14 -.119E-03

 POSITION                                       TOTAL-FORCE (eV/Angst)
      3.60135      3.06107      2.38187        -0.011026      0.008557     -0.003772
      3.60135     -3.06107      2.38187        -0.011026     -0.008557     -0.003772
      1.85967     -3.06107      0.00739         0.011026     -0.008557     -0.003772
      1.85967      3.06107      0.00739         0.011026      0.008557     -0.003772
      3.57015      0.00000      2.36741         0.074575     -0.000000      0.007295
      1.89088      0.00000      4.74190        -0.074575     -0.000000      0.007295
      2.11342      0.00000      1.62023        -0.045256     -0.000000      0.083489
      3.34761      0.00000      3.99472         0.045256     -0.000000      0.083489
      4.39858     -1.27310      1.99030         0.027376     -0.006772     -0.041621
      4.39858      1.27310      1.99030         0.027376      0.006772     -0.041621
      1.06244      1.27310      4.36478        -0.027376      0.006772     -0.041621
      1.06244     -1.27310      4.36478        -0.027376     -0.006772     -0.041621
    total drift:                                0.000002      0.000000      0.003724

  FREE ENERGIE OF THE ION-ELECTRON SYSTEM (eV)
  free  energy   TOTEN  =       -77.69519344 eV

  energy  without entropy=      -77.69519344  energy(sigma->0) =      -77.69519344

[...]

WARNING in EDDRMM: call to ZHEGV failed, returncode =   8  4      2
 BZINTS: Fermi energy:  2.777115; 56.000000 electrons
         Band energy:-521.064942;  BLOECHL correction:  0.000000

[...]

 d Force = 0.1172679E-02[ 0.408E-03, 0.194E-02]  d Energy = 0.2467273E-02-0.129E-02
 d Force = 0.1325098E+01[ 0.132E+01, 0.133E+01]  d Ewald  = 0.5269963E+01-0.394E+01

 Steepest descent step on ions:
 trial-energy change:   -0.002467  1 .order   -0.002437   -0.004802   -0.000072
  (g-gl).g = 0.480E-02      g.g   = 0.480E-02  gl.gl    = 0.000E+00
 g(Force)  = 0.194E-02   g(Stress)= 0.286E-02 ortho     = 0.000E+00
 gamma     =   0.00000
 trial     =   1.00000
 opt step  =   1.01521  (harmonic =   1.01521) maximal distance =0.00408900
 next E    =   -77.697631   (d E  =  -0.00244)

[...]

 Conjugate gradient step on ions:
 trial-energy change:   -0.001397  1 .order   -0.001432   -0.001769   -0.001096
  (g-gl).g = 0.850E-02      g.g   = 0.864E-02  gl.gl    = 0.480E-02
 g(Force)  = 0.839E-02   g(Stress)= 0.250E-03 ortho     = 0.135E-03
 gamma     =   1.77084
 trial     =   0.19925
 opt step  =   0.52410  (harmonic =   0.52410) maximal distance =0.00373365
 next E    =   -77.699990   (d E  =  -0.00233)

[...]

 eigenvalues of (default mixing * dielectric matrix)
  average eigenvalue GAMMA=   1.5700
  1.2668  1.2668  2.1765

[...]

 d Force = 0.1057839E-02[ 0.197E-03, 0.192E-02]  d Energy = 0.9132476E-03 0.145E-03
 d Force = 0.2436263E+01[ 0.243E+01, 0.244E+01]  d Ewald  = 0.4776588E+01-0.234E+01

[...]

 d Force = 0.2955814E-04[ 0.192E-04, 0.400E-04]  d Energy = 0.3797504E-04-0.842E-05
 d Force = 0.9377578E-01[ 0.937E-01, 0.938E-01]  d Ewald  =-0.2200128E-01 0.116E+00

 Conjugate gradient step on ions:
 trial-energy change:   -0.000038  1 .order   -0.000037   -0.000049   -0.000026
  (g-gl).g =-0.155E-03      g.g   = 0.188E-03  gl.gl    = 0.864E-02
 g(Force)  = 0.162E-03   g(Stress)= 0.259E-04 ortho     = 0.190E-03
 gamma     =  -0.01791
 trial     =   0.26422
 opt step  =   0.55525  (harmonic =   0.55525) maximal distance =0.00061789
 next E    =   -77.700026   (d E  =  -0.00005)

 real space projection operators:
  max/ min on nodes  :        395.66        343.72

[...]

 eigenvalue-minimisations  : 10272
 total energy-change (2. order) :-0.7870070E-05  (-0.2323214E-03)
 number of electron      55.9999975 magnetization      -0.0000000
 augmentation part        6.0003047 magnetization      -0.0000000

 Broyden mixing:
  rms(total) = 0.34989E-02    rms(broyden)= 0.34965E-02
  rms(prec ) = 0.44594E-02
  weight for this iteration     100.00

[...]

--------------------------------------- Iteration      7(   2)  ---------------------------------------

[...]

 eigenvalue-minimisations  :  8945
 total energy-change (2. order) : 0.1605003E-05  (-0.6561501E-05)
 number of electron      55.9999975 magnetization      -0.0000000
 augmentation part        6.0003047 magnetization      -0.0000000

 Free energy of the ion-electron system (eV)
  alpha Z        PSCENC =        98.36790010
  Ewald energy   TEWEN  =     -2329.11927772
  -Hartree energ DENC   =      -910.03613693
  -exchange      EXHF   =         0.00000000
  -V(xc)+E(xc)   XCENC  =       217.90818939
  PAW double counting   =      6998.40041808    -7055.89030182
  entropy T*S    EENTRO =         0.00000000
  eigenvalues    EBANDS =      -519.01017769
  atomic energy  EATOM  =      3421.67936747
  Solvation  Ediel_sol  =         0.00000000
  free energy    TOTEN  =       -77.70001913 eV

  energy without entropy =      -77.70001913  energy(sigma->0) =      -77.70001913

 average (electrostatic) potential at core
  the test charge radii are     0.7079  0.9587  0.7089  0.7215
  (the norm of the test charge is              1.0000)
       1 -59.2709       2 -59.2709       3 -59.2709       4 -59.2709       5 -86.1903
       6 -86.1903       7 -63.7833       8 -63.7833       9 -71.1690      10 -71.1690
      11 -71.1690      12 -71.1690

 E-fermi :   2.8011     XC(G=0):  -9.8907     alpha+bet :-12.8702

[...]

 spin component 2

[...]

 k-point    64 :      -0.4286    0.4286    0.4286
  band No.  band energies     occupation
      1     -40.1899      1.00000
      2     -40.1854      1.00000
      3     -40.1843      1.00000
      4     -40.1834      1.00000
      5     -16.7594      1.00000
      6     -16.6360      1.00000
      7     -15.0678      1.00000
      8     -15.0173      1.00000
      9     -12.5028      1.00000
     10     -12.1798      1.00000
     11      -5.6645      1.00000
     12      -5.1006      1.00000
     13      -2.4586      1.00000
     14      -2.3802      1.00000
     15      -2.0315      1.00000
     16      -1.9327      1.00000
     17      -0.9248      1.00000
     18      -0.4411      1.00000
     19      -0.3273      1.00000
     20      -0.2894      1.00000
     21       0.0907      1.00000
     22       0.1997      1.00000
     23       1.0459      1.00000
     24       1.1164      1.00000
     25       1.6460      1.00000
     26       1.7206      1.00000
     27       2.6009      1.00000
     28       2.6913      1.00000
     29       9.1674      0.00000
     30       9.2847      0.00000
     31      10.5884      0.00000
     32      10.6682      0.00000
     33      10.8681      0.00000
     34      11.3701      0.00000
     35      12.2325      0.00000
     36      12.7147      0.00000

[...]

 soft charge-density along one line, spin component           2
         0         1         2         3         4         5         6         7         8         9
 total charge-density along one line

------------------------ aborting loop because EDIFF is reached ----------------------------------------

[...]

  FORCE on cell =-STRESS in cart. coord.  units (eV):
  Direction    XX          YY          ZZ          XY          YZ          ZX
  Alpha Z    98.36790    98.36790    98.36790
  Ewald    -778.33352  -777.53946  -773.25099    -0.00000    -0.00000    -0.00000
  Hartree   297.43064   287.17196   325.48738     0.00000     0.00000    -0.00000
  E(xc)    -257.51115  -257.55792  -257.57443    -0.00000    -0.00000    -0.00000
  Local    -356.38730  -343.60150  -395.33675    -0.00000     0.00000     0.00000
  n-local   -93.35808   -94.46892   -91.12018     0.06399     0.02814     0.01842
  augment    82.00552    80.88360    82.53358    -0.00000    -0.00000    -0.00000
  Kinetic  1007.73374  1006.77497  1010.86831    -0.42947    -0.21822    -0.15233
  Fock        0.00000     0.00000     0.00000     0.00000     0.00000     0.00000
  Total      -0.05225     0.03063    -0.02518     0.00000     0.00000     0.00000
  in kB      -0.71198     0.41734    -0.34307     0.00000     0.00000     0.00000

 VOLUME and BASIS-vectors are now :
  energy-cutoff  :      520.00
  volume of cell :      117.58
      direct lattice vectors                 reciprocal lattice vectors
     2.720708251 -4.555526682  0.000000000     0.183775677 -0.109756793  0.000000000
     2.720708251  4.555526682  0.000000000     0.183775677  0.109756793  0.000000000
     0.000000000  0.000000000  4.743197136     0.000000000  0.000000000  0.210828260

  length of vectors
     5.306135764  5.306135764  4.743197136     0.214056191  0.214056191  0.210828260

 FORCES acting on ions
    electron-ion (+dipol)            ewald-force                    non-local-force                 convergence-correction
   0.211E+01 0.349E+01 0.670E+01   -.188E+01 -.318E+01 -.639E+01   -.238E+00 -.310E+00 -.303E+00   -.143E-03 -.143E-02 -.312E-03
   0.211E+01 -.349E+01 0.670E+01   -.188E+01 0.318E+01 -.639E+01   -.238E+00 0.310E+00 -.303E+00   -.143E-03 0.143E-02 -.312E-03
   -.211E+01 -.349E+01 0.670E+01   0.188E+01 0.318E+01 -.639E+01   0.238E+00 0.310E+00 -.303E+00   0.143E-03 0.143E-02 -.312E-03
   -.211E+01 0.349E+01 0.670E+01   0.188E+01 -.318E+01 -.639E+01   0.238E+00 -.310E+00 -.303E+00   0.143E-03 -.143E-02 -.312E-03
   0.222E+02 -.565E-12 -.166E+02   -.228E+02 0.200E-14 0.162E+02   0.509E+00 0.000E+00 0.416E+00   0.335E-03 -.390E-12 -.619E-02
   -.222E+02 0.858E-13 -.166E+02   0.228E+02 0.000E+00 0.162E+02   -.509E+00 0.000E+00 0.416E+00   -.335E-03 0.172E-12 -.619E-02
   0.602E+02 -.176E-11 -.370E+02   -.753E+02 -.355E-14 0.477E+02   0.151E+02 0.000E+00 -.107E+02   0.130E-01 0.562E-12 0.128E-01
   -.602E+02 0.782E-12 -.370E+02   0.753E+02 -.355E-14 0.477E+02   -.151E+02 0.000E+00 -.107E+02   -.130E-01 -.959E-12 0.128E-01
   -.567E+02 0.922E+02 0.184E+02   0.730E+02 -.117E+03 -.255E+02   -.163E+02 0.251E+02 0.716E+01   -.949E-03 0.644E-02 -.411E-02
   -.567E+02 -.922E+02 0.184E+02   0.730E+02 0.117E+03 -.255E+02   -.163E+02 -.251E+02 0.716E+01   -.949E-03 -.644E-02 -.411E-02
   0.567E+02 -.922E+02 0.184E+02   -.730E+02 0.117E+03 -.255E+02   0.163E+02 -.251E+02 0.716E+01   0.949E-03 -.644E-02 -.411E-02
   0.567E+02 0.922E+02 0.184E+02   -.730E+02 -.117E+03 -.255E+02   0.163E+02 0.251E+02 0.716E+01   0.949E-03 0.644E-02 -.411E-02
   0.387E-05 0.170E-11 -.680E+01   -.142E-13 -.142E-13 -.711E-14   0.107E-13 0.355E-14 0.681E+01   0.310E-12 -.156E-11 -.446E-02

 POSITION                                       TOTAL-FORCE (eV/Angst)
      3.58715      3.04688      2.37869        -0.004897     -0.003646      0.002698
      3.58715     -3.04688      2.37869        -0.004897      0.003646      0.002698
      1.85427     -3.04688      0.00709         0.004897      0.003646      0.002698
      1.85427      3.04688      0.00709         0.004897     -0.003646      0.002698
      3.56136      0.00000      2.36797        -0.004889     -0.000000     -0.013452
      1.88006      0.00000      4.73957         0.004889     -0.000000     -0.013452
      2.09951      0.00000      1.62560         0.007146     -0.000000      0.006420
      3.34190      0.00000      3.99720        -0.007146     -0.000000      0.006420
      4.38792     -1.27076      1.98278         0.000053     -0.000588      0.000818
      4.38792      1.27076      1.98278         0.000053      0.000588      0.000818
      1.05350      1.27076      4.35437        -0.000053      0.000588      0.000818
      1.05350     -1.27076      4.35437        -0.000053     -0.000588      0.000818
    total drift:                                0.000004      0.000000     -0.002777

  FREE ENERGIE OF THE ION-ELECTRON SYSTEM (eV)
  free  energy   TOTEN  =       -77.70001913 eV

  energy  without entropy=      -77.70001913  energy(sigma->0) =      -77.70001913

 d Force = 0.8499106E-05[-0.411E-05, 0.211E-04]  d Energy = 0.6696680E-05 0.180E-05
 d Force = 0.1031286E+00[ 0.103E+00, 0.103E+00]  d Ewald  =-0.2437594E-01 0.128E+00

 reached required accuracy - stopping structural energy minimisation

 total charge

[...]

 magnetization (x)

# of ion       s       p       d       tot
    1        0.000  -0.000   0.000  -0.000
    2        0.000  -0.000   0.000  -0.000
    3        0.000  -0.000   0.000  -0.000
    4        0.000  -0.000   0.000  -0.000
    5       -0.000   0.000   0.000   0.000
    6       -0.000   0.000   0.000   0.000
    7        0.000  -0.000   0.000   0.000
    8        0.000   0.000   0.000   0.000
    9       -0.000  -0.000   0.000  -0.000
   10       -0.000  -0.000   0.000  -0.000
   11       -0.000  -0.000   0.000  -0.000
   12       -0.000  -0.000   0.000  -0.000
tot          0.000  -0.000   0.000  -0.000

 BZINTS: Fermi energy:  2.801095; 56.000000 electrons
         Band energy:-519.010178;  BLOECHL correction:  0.000000