 vasp.5.4.4.18Apr17-6-g9f103f2a35 (build Aug 12 2020 11:57:02) complex

 executed on             LinuxIFC date 2021.02.02  18:27:48

 INCAR:
 POTCAR:    PAW_PBE Li_sv 10Sep2004
 POTCAR:    PAW_PBE Li_sv 10Sep2004
   VRHFIN =Li: 1s2s2p

   TITEL  = PAW_PBE Li_sv 10Sep2004
   POMASS =    7.010; ZVAL   =    3.000    mass and valenz
   ENMAX  =  499.034; ENMIN  =  374.276 eV

 Optimization of the real space projectors (new method)

 maximal supplied QI-value         = 22.11
 optimisation between [QCUT,QGAM] = [ 11.50, 23.22] = [ 37.02,150.92] Ry
 Optimized for a Real-space Cutoff    1.08 Angstroem

   l    n(q)    QCUT    max X(q) W(low)/X(q) W(high)/X(q)  e(spline)
   0      7    11.497    10.506    0.36E-04    0.62E-04    0.14E-07
   0      7    11.497     8.367    0.65E-04    0.14E-03    0.28E-07
   1      7    11.497     8.983    0.21E-03    0.43E-03    0.90E-07
  PAW_PBE Li_sv 10Sep2004               :

 POSCAR: Li1
  positions in direct lattice
 exchange correlation table for  LEXCH =        8
   RHO(1)=    0.500       N(1)  =     2000
   RHO(2)=  100.500       N(2)  =     4000

 ion  position               nearest neighbor table
   1  0.000  0.000  0.000-

  LATTYP: Found a body centered cubic cell.
 ALAT       =     3.4268180000

  Lattice vectors:

 A1 = (  -1.7134090000,   1.7134090000,   1.7134090000)
 A2 = (   1.7134090000,  -1.7134090000,   1.7134090000)
 A3 = (   1.7134090000,   1.7134090000,  -1.7134090000)

Analysis of symmetry for initial positions (statically):
 Subroutine PRICEL returns:
 Original cell was already a primitive cell.

 Routine SETGRP: Setting up the symmetry group for a
 body centered cubic supercell.

 Subroutine GETGRP returns: Found 48 space group operations
 (whereof 48 operations were pure point group operations)
 out of a pool of 48 trial point group operations.

The static configuration has the point symmetry O_h .

Analysis of symmetry for dynamics (positions and initial velocities):
 Subroutine PRICEL returns:
 Original cell was already a primitive cell.

[...]

The dynamic configuration has the point symmetry O_h .

Analysis of structural, dynamic, and magnetic symmetry:
 Subroutine PRICEL returns:
 Original cell was already a primitive cell.

 Routine SETGRP: Setting up the symmetry group for a
 body centered cubic supercell.

 Subroutine GETGRP returns: Found 48 space group operations
 (whereof 48 operations were pure point group operations)
 out of a pool of 48 trial point group operations.

The magnetic configuration has the point symmetry O_h .

 Subroutine INISYM returns: Found 48 space group operations
 (whereof 48 operations are pure point group operations),
 and found     1 'primitive' translations

 KPOINTS: Fully automatic kpoint scheme

Automatic generation of k-mesh.
 generate k-points for:   13   13   13
Space group operators:
 irot       det(A)        alpha          n_x          n_y          n_z        tau_x        tau_y        tau_z
    1     1.000000     0.000000     1.000000     0.000000     0.000000     0.000000     0.000000     0.000000
    2    -1.000000     0.000000     1.000000     0.000000     0.000000     0.000000     0.000000     0.000000
    3     1.000000   120.000000    -0.577350    -0.577350    -0.577350     0.000000     0.000000     0.000000
    4    -1.000000   120.000000    -0.577350    -0.577350    -0.577350     0.000000     0.000000     0.000000
    5     1.000000   120.000000     0.577350     0.577350     0.577350     0.000000     0.000000     0.000000
    6    -1.000000   120.000000     0.577350     0.577350     0.577350     0.000000     0.000000     0.000000
    7     1.000000    90.000000     0.000000     0.000000    -1.000000     0.000000     0.000000     0.000000
    8    -1.000000    90.000000     0.000000     0.000000    -1.000000     0.000000     0.000000     0.000000
    9     1.000000   180.000000     0.000000     0.707107     0.707107     0.000000     0.000000     0.000000
   10    -1.000000   180.000000     0.000000     0.707107     0.707107     0.000000     0.000000     0.000000
   11     1.000000    90.000000     0.000000     1.000000     0.000000     0.000000     0.000000     0.000000
   12    -1.000000    90.000000     0.000000     1.000000     0.000000     0.000000     0.000000     0.000000
   13     1.000000   180.000000     0.000000     0.000000     1.000000     0.000000     0.000000     0.000000
   14    -1.000000   180.000000     0.000000     0.000000     1.000000     0.000000     0.000000     0.000000
   15     1.000000   120.000000    -0.577350     0.577350     0.577350     0.000000     0.000000     0.000000
   16    -1.000000   120.000000    -0.577350     0.577350     0.577350     0.000000     0.000000     0.000000
   17     1.000000   120.000000    -0.577350     0.577350    -0.577350     0.000000     0.000000     0.000000
   18    -1.000000   120.000000    -0.577350     0.577350    -0.577350     0.000000     0.000000     0.000000
   19     1.000000    90.000000     0.000000     0.000000     1.000000     0.000000     0.000000     0.000000
   20    -1.000000    90.000000     0.000000     0.000000     1.000000     0.000000     0.000000     0.000000
   21     1.000000    90.000000    -1.000000     0.000000     0.000000     0.000000     0.000000     0.000000
   22    -1.000000    90.000000    -1.000000     0.000000     0.000000     0.000000     0.000000     0.000000
   23     1.000000   180.000000     0.707107     0.000000     0.707107     0.000000     0.000000     0.000000
   24    -1.000000   180.000000     0.707107     0.000000     0.707107     0.000000     0.000000     0.000000
   25     1.000000   120.000000     0.577350    -0.577350     0.577350     0.000000     0.000000     0.000000
   26    -1.000000   120.000000     0.577350    -0.577350     0.577350     0.000000     0.000000     0.000000
   27     1.000000   120.000000    -0.577350    -0.577350     0.577350     0.000000     0.000000     0.000000
   28    -1.000000   120.000000    -0.577350    -0.577350     0.577350     0.000000     0.000000     0.000000
   29     1.000000   180.000000     1.000000     0.000000     0.000000     0.000000     0.000000     0.000000
   30    -1.000000   180.000000     1.000000     0.000000     0.000000     0.000000     0.000000     0.000000
   31     1.000000    90.000000     0.000000    -1.000000     0.000000     0.000000     0.000000     0.000000
   32    -1.000000    90.000000     0.000000    -1.000000     0.000000     0.000000     0.000000     0.000000
   33     1.000000   180.000000     0.707107     0.707107     0.000000     0.000000     0.000000     0.000000
   34    -1.000000   180.000000     0.707107     0.707107     0.000000     0.000000     0.000000     0.000000
   35     1.000000    90.000000     1.000000     0.000000     0.000000     0.000000     0.000000     0.000000
   36    -1.000000    90.000000     1.000000     0.000000     0.000000     0.000000     0.000000     0.000000
   37     1.000000   120.000000     0.577350    -0.577350    -0.577350     0.000000     0.000000     0.000000
   38    -1.000000   120.000000     0.577350    -0.577350    -0.577350     0.000000     0.000000     0.000000
   39     1.000000   180.000000     0.000000     1.000000     0.000000     0.000000     0.000000     0.000000
   40    -1.000000   180.000000     0.000000     1.000000     0.000000     0.000000     0.000000     0.000000
   41     1.000000   120.000000     0.577350     0.577350    -0.577350     0.000000     0.000000     0.000000
   42    -1.000000   120.000000     0.577350     0.577350    -0.577350     0.000000     0.000000     0.000000
   43     1.000000   180.000000     0.000000    -0.707107     0.707107     0.000000     0.000000     0.000000
   44    -1.000000   180.000000     0.000000    -0.707107     0.707107     0.000000     0.000000     0.000000
   45     1.000000   180.000000     0.707107    -0.707107     0.000000     0.000000     0.000000     0.000000
   46    -1.000000   180.000000     0.707107    -0.707107     0.000000     0.000000     0.000000     0.000000
   47     1.000000   180.000000     0.707107     0.000000    -0.707107     0.000000     0.000000     0.000000
   48    -1.000000   180.000000     0.707107     0.000000    -0.707107     0.000000     0.000000     0.000000

 Subroutine IBZKPT returns following result:

 Found     84 irreducible k-points:

 Following reciprocal coordinates:
            Coordinates               Weight
  0.000000  0.000000  0.000000      1.000000
  0.076923  0.000000  0.000000     12.000000
  0.153846  0.000000  0.000000     12.000000
  0.230769  0.000000  0.000000     12.000000
  0.307692  0.000000  0.000000     12.000000
  0.384615  0.000000  0.000000     12.000000
  0.461538  0.000000  0.000000     12.000000
  0.076923  0.076923  0.000000     24.000000
  0.153846  0.076923  0.000000     48.000000
  0.230769  0.076923  0.000000     48.000000
  0.307692  0.076923  0.000000     48.000000
  0.384615  0.076923  0.000000     48.000000
  0.461538  0.076923  0.000000     24.000000
  0.153846  0.153846  0.000000     24.000000
  0.230769  0.153846  0.000000     48.000000
  0.307692  0.153846  0.000000     48.000000
  0.384615  0.153846  0.000000     48.000000
  0.230769  0.230769  0.000000     24.000000
  0.307692  0.230769  0.000000     48.000000
  0.384615  0.230769  0.000000     24.000000
  0.307692  0.307692  0.000000     24.000000
  0.076923  0.076923  0.076923      8.000000
  0.153846  0.076923  0.076923     24.000000
  0.230769  0.076923  0.076923     24.000000
  0.307692  0.076923  0.076923     24.000000
  0.384615  0.076923  0.076923     24.000000
 -0.076923  0.076923  0.076923      6.000000
  0.153846  0.153846  0.076923     24.000000
  0.230769  0.153846  0.076923     48.000000
  0.307692  0.153846  0.076923     48.000000
  0.384615  0.153846  0.076923     24.000000
 -0.153846  0.153846  0.076923     24.000000
  0.230769  0.230769  0.076923     24.000000
  0.307692  0.230769  0.076923     48.000000
 -0.230769  0.230769  0.076923     24.000000
 -0.153846  0.230769  0.076923     24.000000
  0.307692  0.307692  0.076923      8.000000
 -0.307692  0.307692  0.076923     24.000000
 -0.230769  0.307692  0.076923     48.000000
 -0.384615  0.384615  0.076923     24.000000
 -0.307692  0.384615  0.076923     48.000000
 -0.230769  0.384615  0.076923     24.000000
 -0.461538  0.461538  0.076923     24.000000
 -0.384615  0.461538  0.076923     48.000000
 -0.307692  0.461538  0.076923     48.000000
 -0.461538 -0.461538  0.076923     24.000000
 -0.384615 -0.461538  0.076923     48.000000
 -0.307692 -0.461538  0.076923     24.000000
 -0.384615 -0.384615  0.076923     24.000000
  0.153846  0.153846  0.153846      8.000000
  0.230769  0.153846  0.153846     24.000000
  0.307692  0.153846  0.153846     24.000000
 -0.153846  0.153846  0.153846      6.000000
  0.230769  0.230769  0.153846     24.000000
  0.307692  0.230769  0.153846     24.000000
 -0.230769  0.230769  0.153846     24.000000
 -0.307692  0.307692  0.153846     24.000000
 -0.230769  0.307692  0.153846     24.000000
 -0.384615  0.384615  0.153846     24.000000
 -0.307692  0.384615  0.153846     48.000000
[...]
 -0.384615  0.384615  0.230769     24.000000
 -0.307692  0.384615  0.230769     24.000000
[...]
   0.15384615  0.00000000  0.00000000       0.005
   0.23076923  0.00000000  0.00000000       0.005
   0.30769231  0.00000000  0.00000000       0.005
   0.38461538  0.00000000  0.00000000       0.005
   0.46153846  0.00000000  0.00000000       0.005
   0.07692308  0.07692308  0.00000000       0.011
   0.15384615  0.07692308  0.00000000       0.022
   0.23076923  0.07692308  0.00000000       0.022
   0.30769231  0.07692308  0.00000000       0.022
   0.38461538  0.07692308  0.00000000       0.022
   0.46153846  0.07692308  0.00000000       0.011
   0.15384615  0.15384615  0.00000000       0.011
   0.23076923  0.15384615  0.00000000       0.022
   0.30769231  0.15384615  0.00000000       0.022
   0.38461538  0.15384615  0.00000000       0.022
   0.23076923  0.23076923  0.00000000       0.011
   0.30769231  0.23076923  0.00000000       0.022
   0.38461538  0.23076923  0.00000000       0.011
   0.30769231  0.30769231  0.00000000       0.011
   0.07692308  0.07692308  0.07692308       0.004
   0.15384615  0.07692308  0.07692308       0.011
   0.23076923  0.07692308  0.07692308       0.011
   0.30769231  0.07692308  0.07692308       0.011
   0.38461538  0.07692308  0.07692308       0.011
  -0.07692308  0.07692308  0.07692308       0.003
   0.15384615  0.15384615  0.07692308       0.011
   0.23076923  0.15384615  0.07692308       0.022
   0.30769231  0.15384615  0.07692308       0.022
   0.38461538  0.15384615  0.07692308       0.011
  -0.15384615  0.15384615  0.07692308       0.011
   0.23076923  0.23076923  0.07692308       0.011
   0.30769231  0.23076923  0.07692308       0.022
  -0.23076923  0.23076923  0.07692308       0.011
  -0.15384615  0.23076923  0.07692308       0.011
   0.30769231  0.30769231  0.07692308       0.004
  -0.30769231  0.30769231  0.07692308       0.011
  -0.23076923  0.30769231  0.07692308       0.022
  -0.38461538  0.38461538  0.07692308       0.011
  -0.30769231  0.38461538  0.07692308       0.022
  -0.23076923  0.38461538  0.07692308       0.011
  -0.46153846  0.46153846  0.07692308       0.011
  -0.38461538  0.46153846  0.07692308       0.022
  -0.30769231  0.46153846  0.07692308       0.022
  -0.46153846 -0.46153846  0.07692308       0.011
  -0.38461538 -0.46153846  0.07692308       0.022
  -0.30769231 -0.46153846  0.07692308       0.011
  -0.38461538 -0.38461538  0.07692308       0.011
   0.15384615  0.15384615  0.15384615       0.004
   0.23076923  0.15384615  0.15384615       0.011
   0.30769231  0.15384615  0.15384615       0.011
  -0.15384615  0.15384615  0.15384615       0.003
   0.23076923  0.23076923  0.15384615       0.011
   0.30769231  0.23076923  0.15384615       0.011
  -0.23076923  0.23076923  0.15384615       0.011
  -0.30769231  0.30769231  0.15384615       0.011
  -0.23076923  0.30769231  0.15384615       0.011
  -0.38461538  0.38461538  0.15384615       0.011
  -0.30769231  0.38461538  0.15384615       0.022
[...]
  -0.38461538  0.38461538  0.23076923       0.011
  -0.30769231  0.38461538  0.23076923       0.011
  -0.46153846  0.46153846  0.23076923       0.011
  -0.38461538  0.46153846  0.23076923       0.022
  -0.46153846 -0.46153846  0.23076923       0.011
  -0.38461538 -0.46153846  0.23076923       0.011
  -0.30769231  0.30769231  0.30769231       0.003
  -0.38461538  0.38461538  0.30769231       0.011
  -0.46153846  0.46153846  0.30769231       0.011
  -0.38461538  0.46153846  0.30769231       0.011
  -0.46153846 -0.46153846  0.30769231       0.011
  -0.38461538  0.38461538  0.38461538       0.003
  -0.46153846  0.46153846  0.38461538       0.011
  -0.46153846 -0.46153846  0.38461538       0.004
  -0.46153846  0.46153846  0.46153846       0.003

 position of ions in fractional coordinates (direct lattice)
   0.00000000  0.00000000  0.00000000

 position of ions in cartesian coordinates  (Angst):
   0.00000000  0.00000000  0.00000000

 k-point  1 :   0.0000 0.0000 0.0000  plane waves:     555
 k-point  2 :   0.0769 0.0000 0.0000  plane waves:     547
 k-point  3 :   0.1538 0.0000 0.0000  plane waves:     555
 k-point  4 :   0.2308 0.0000 0.0000  plane waves:     551
 k-point  5 :   0.3077 0.0000 0.0000  plane waves:     545
 k-point  6 :   0.3846 0.0000 0.0000  plane waves:     539
 k-point  7 :   0.4615 0.0000 0.0000  plane waves:     537
 k-point  8 :   0.0769 0.0769 0.0000  plane waves:     555
 k-point  9 :   0.1538 0.0769 0.0000  plane waves:     548
 k-point 10 :   0.2308 0.0769 0.0000  plane waves:     548
 k-point 11 :   0.3077 0.0769 0.0000  plane waves:     548
 k-point 12 :   0.3846 0.0769 0.0000  plane waves:     538
 k-point 13 :   0.4615 0.0769 0.0000  plane waves:     538
 k-point 14 :   0.1538 0.1538 0.0000  plane waves:     544
 k-point 15 :   0.2308 0.1538 0.0000  plane waves:     547
 k-point 16 :   0.3077 0.1538 0.0000  plane waves:     544
 k-point 17 :   0.3846 0.1538 0.0000  plane waves:     538
 k-point 18 :   0.2308 0.2308 0.0000  plane waves:     539
 k-point 19 :   0.3077 0.2308 0.0000  plane waves:     538
 k-point 20 :   0.3846 0.2308 0.0000  plane waves:     539
 k-point 21 :   0.3077 0.3077 0.0000  plane waves:     543
 k-point 22 :   0.0769 0.0769 0.0769  plane waves:     549
 k-point 23 :   0.1538 0.0769 0.0769  plane waves:     545
 k-point 24 :   0.2308 0.0769 0.0769  plane waves:     540
 k-point 25 :   0.3077 0.0769 0.0769  plane waves:     539
 k-point 26 :   0.3846 0.0769 0.0769  plane waves:     537
 k-point 27 :  -0.0769 0.0769 0.0769  plane waves:     555
 k-point 28 :   0.1538 0.1538 0.0769  plane waves:     535
 k-point 29 :   0.2308 0.1538 0.0769  plane waves:     537
 k-point 30 :   0.3077 0.1538 0.0769  plane waves:     539
 k-point 31 :   0.3846 0.1538 0.0769  plane waves:     539
 k-point 32 :  -0.1538 0.1538 0.0769  plane waves:     552
 k-point 33 :   0.2308 0.2308 0.0769  plane waves:     538
 k-point 34 :   0.3077 0.2308 0.0769  plane waves:     540
 k-point 35 :  -0.2308 0.2308 0.0769  plane waves:     551
 k-point 36 :  -0.1538 0.2308 0.0769  plane waves:     554
 k-point 37 :   0.3077 0.3077 0.0769  plane waves:     535
 k-point 38 :  -0.3077 0.3077 0.0769  plane waves:     544
 k-point 39 :  -0.2308 0.3077 0.0769  plane waves:     546
 k-point 40 :  -0.3846 0.3846 0.0769  plane waves:     543
 k-point 41 :  -0.3077 0.3846 0.0769  plane waves:     548
 k-point 42 :  -0.2308 0.3846 0.0769  plane waves:     548
 k-point 43 :  -0.4615 0.4615 0.0769  plane waves:     539
 k-point 44 :  -0.3846 0.4615 0.0769  plane waves:     542
 k-point 45 :  -0.3077 0.4615 0.0769  plane waves:     542
 k-point 46 :  -0.4615-0.4615 0.0769  plane waves:     540
 k-point 47 :  -0.3846-0.4615 0.0769  plane waves:     539
 k-point 48 :  -0.3077-0.4615 0.0769  plane waves:     545
 k-point 49 :  -0.3846-0.3846 0.0769  plane waves:     541
 k-point 50 :   0.1538 0.1538 0.1538  plane waves:     537
 k-point 51 :   0.2308 0.1538 0.1538  plane waves:     535
 k-point 52 :   0.3077 0.1538 0.1538  plane waves:     533
 k-point 53 :  -0.1538 0.1538 0.1538  plane waves:     555
 k-point 54 :   0.2308 0.2308 0.1538  plane waves:     533
 k-point 55 :   0.3077 0.2308 0.1538  plane waves:     537
 k-point 56 :  -0.2308 0.2308 0.1538  plane waves:     548
 k-point 57 :  -0.3077 0.3077 0.1538  plane waves:     549
 k-point 58 :  -0.2308 0.3077 0.1538  plane waves:     548
 k-point 59 :  -0.3846 0.3846 0.1538  plane waves:     547
 k-point 60 :  -0.3077 0.3846 0.1538  plane waves:     541
[...]
 k-point 70 :  -0.3846 0.3846 0.2308  plane waves:     545
 k-point 71 :  -0.3077 0.3846 0.2308  plane waves:     538
 k-point 72 :  -0.4615 0.4615 0.2308  plane waves:     542
 k-point 73 :  -0.3846 0.4615 0.2308  plane waves:     538
 k-point 74 :  -0.4615-0.4615 0.2308  plane waves:     533
 k-point 75 :  -0.3846-0.4615 0.2308  plane waves:     535
 k-point 76 :  -0.3077 0.3077 0.3077  plane waves:     538
 k-point 77 :  -0.3846 0.3846 0.3077  plane waves:     534
 k-point 78 :  -0.4615 0.4615 0.3077  plane waves:     537
 k-point 79 :  -0.3846 0.4615 0.3077  plane waves:     532
 k-point 80 :  -0.4615-0.4615 0.3077  plane waves:     535
 k-point 81 :  -0.3846 0.3846 0.3846  plane waves:     534
 k-point 82 :  -0.4615 0.4615 0.3846  plane waves:     532
 k-point 83 :  -0.4615-0.4615 0.3846  plane waves:     532
 k-point 84 :  -0.4615 0.4615 0.4615  plane waves:     518

 maximum and minimum number of plane-waves per node :       113       79

 maximum number of plane-waves:       555
 maximum index in each direction:
   IXMAX=    5   IYMAX=    5   IZMAX=    5
   IXMIN=   -5   IYMIN=   -5   IZMIN=   -5

 real space projection operators:
  max/ min on nodes  :         23.59         22.19

 parallel 3D FFT for wavefunctions:
    minimum data exchange during FFTs selected (reduces bandwidth)
 parallel 3D FFT for charge:
    minimum data exchange during FFTs selected (reduces bandwidth)

 Broyden mixing: mesh for mixing (old mesh)
   NGX = 11   NGY = 11   NGZ = 11
  (NGX  = 48   NGY  = 48   NGZ  = 48)
  gives a total of   1331 points

 initial charge density was supplied:
 charge density of overlapping atoms calculated
 number of electron       3.0000000 magnetization       0.0000000
 keeping initial charge density in first step

 Maximum index for non-local projection operator          587
 Maximum index for augmentation-charges          437 (set IRDMAX)

 First call to EWALD:  gamma=   0.652
 Maximum number of real-space cells 3x 3x 3
 Maximum number of reciprocal cells 3x 3x 3

--------------------------------------- Iteration      1(   1)  ---------------------------------------

 eigenvalue-minimisations  :  2736
 total energy-change (2. order) :-0.2052736E+00  (-0.7216894E+02)
 number of electron       3.0000000 magnetization       0.0000000
 augmentation part        3.0000000 magnetization       0.0000000

 Free energy of the ion-electron system (eV)
  alpha Z        PSCENC =         1.14408901
  Ewald energy   TEWEN  =       -68.81568908
  -Hartree energ DENC   =       -41.77558993
  -exchange      EXHF   =         0.00000000
  -V(xc)+E(xc)   XCENC  =        12.11293580
  PAW double counting   =        79.76162584      -95.16706656
  entropy T*S    EENTRO =         0.00035646
  eigenvalues    EBANDS =       -90.23878207
  atomic energy  EATOM  =       202.77284695
  Solvation  Ediel_sol  =         0.00000000
  free energy    TOTEN  =        -0.20527359 eV

  energy without entropy =       -0.20563005  energy(sigma->0) =       -0.20539241

[...]

 Broyden mixing:
  rms(total) = 0.20988E-01    rms(broyden)= 0.20925E-01
  rms(prec ) = 0.74748E-01
  weight for this iteration     100.00

[...]

 eigenvalue-minimisations  :  2807
 total energy-change (2. order) : 0.1103288E-02  (-0.1608867E-04)
 number of electron       3.0000002 magnetization      -0.0000028
 augmentation part        0.9241093 magnetization      -0.0000066

[...]

 eigenvalues of (default mixing * dielectric matrix)
  average eigenvalue GAMMA=   2.4237
  2.4237

[...]

 eigenvalue-minimisations  :  2810
 total energy-change (2. order) : 0.5121197E-03  (-0.6552432E-04)
 number of electron       3.0000002 magnetization      -0.0000034
 augmentation part        0.9221458 magnetization      -0.0000027

 Broyden mixing:
  rms(total) = 0.23618E-02    rms(broyden)= 0.23288E-02
  rms(prec ) = 0.44353E-02
  weight for this iteration     100.00

[...]

 Broyden mixing:
  rms(total) = 0.27189E-03    rms(broyden)= 0.16675E-03
  rms(prec ) = 0.32075E-03
  weight for this iteration     100.00
  WARNING: grid for Broyden might be to small

 eigenvalues of (default mixing * dielectric matrix)
  average eigenvalue GAMMA=   2.3482
  1.1829  2.9309  2.9309

[...]

--------------------------------------- Iteration      1(   9)  ---------------------------------------

 eigenvalue-minimisations  :  2178
 total energy-change (2. order) :-0.8716200E-06  (-0.2827829E-05)
 number of electron       3.0000002 magnetization       0.0000068
 augmentation part        0.9214205 magnetization       0.0000026

 Free energy of the ion-electron system (eV)
  alpha Z        PSCENC =         1.14408901
  Ewald energy   TEWEN  =       -68.81568908
  -Hartree energ DENC   =       -41.16069408
  -exchange      EXHF   =         0.00000000
  -V(xc)+E(xc)   XCENC  =        12.06724463
  PAW double counting   =        81.02162441      -96.48323220
  entropy T*S    EENTRO =         0.00049890
  eigenvalues    EBANDS =       -92.45154896
  atomic energy  EATOM  =       202.77284695
  Solvation  Ediel_sol  =         0.00000000
  free energy    TOTEN  =        -1.90486043 eV

  energy without entropy =       -1.90535933  energy(sigma->0) =       -1.90502673

 average (electrostatic) potential at core
  the test charge radii are     0.7079
  (the norm of the test charge is              1.0000)
       1 -64.9573

 E-fermi :   0.7103     XC(G=0):  -7.0624     alpha+bet : -7.4341

 spin component 1

 k-point     1 :       0.0000    0.0000    0.0000
  band No.  band energies     occupation
      1     -45.8739      1.00000
      2      -2.9234      1.00000
      3      15.3283      0.00000
      4      15.3283      0.00000
      5      15.3284      0.00000
      6      20.1151      0.00000
      7      20.1151      0.00000
      8      20.1151      0.00000

[...]

 spin component 2

[...]

 k-point    84 :      -0.4615    0.4615    0.4615
  band No.  band energies     occupation
      1     -45.8406      1.00000
      2       5.4120     -0.00000
      3       6.2663      0.00000
      4       6.2664      0.00000
      5       8.5281      0.00000
      6       9.3378      0.00000
      7      14.3541      0.00000
      8      28.6556      0.00000

 soft charge-density along one line, spin component           1
         0         1         2         3         4         5         6         7         8         9
 total charge-density along one line

 soft charge-density along one line, spin component           2
         0         1         2         3         4         5         6         7         8         9
 total charge-density along one line

------------------------ aborting loop because EDIFF is reached ----------------------------------------

 total charge

# of ion       s       p       d       tot
    1        2.033   0.042   0.000   2.075

 magnetization (x)

[...]

  FORCE on cell =-STRESS in cart. coord.  units (eV):
  Direction    XX          YY          ZZ          XY          YZ          ZX
  Alpha Z     1.14409     1.14409     1.14409
  Ewald     -22.93856   -22.93856   -22.93856    -0.00000     0.00000    -0.00000
  Hartree    13.72166    13.72166    13.72166    -0.00000    -0.00000    -0.00000
  E(xc)     -13.27522   -13.27522   -13.27522    -0.00001    -0.00001    -0.00001
  Local     -19.33387   -19.33387   -19.33387     0.00004     0.00004     0.00004
  n-local   -18.92802   -19.19638   -19.10531    -0.02371     0.12976     0.13734
  augment    17.17992    17.17992    17.17992    -0.00004    -0.00004    -0.00004
  Kinetic    43.01609    42.33585    42.38139    -0.58961     1.14613     0.73746
  Fock        0.00000     0.00000     0.00000     0.00000     0.00000     0.00000
  Total      -0.00078    -0.00078    -0.00078    -0.00000    -0.00000    -0.00000
  in kB      -0.06185    -0.06185    -0.06185    -0.00000    -0.00000    -0.00000

 VOLUME and BASIS-vectors are now :
  energy-cutoff  :      520.00
  volume of cell :       20.12
      direct lattice vectors                 reciprocal lattice vectors
    -1.713409000  1.713409000  1.713409000     0.000000000  0.291815906  0.291815906
     1.713409000 -1.713409000  1.713409000     0.291815906  0.000000000  0.291815906
     1.713409000  1.713409000 -1.713409000     0.291815906  0.291815906  0.000000000

  length of vectors
     2.967711442  2.967711442  2.967711442     0.412690012  0.412690012  0.412690012

 FORCES acting on ions
    electron-ion (+dipol)            ewald-force                    non-local-force                 convergence-correction
   -.223E-14 -.902E-14 0.103E-13   -.611E-16 -.996E-17 0.738E-17   -.248E-23 0.165E-23 -.165E-23   0.264E-14 -.430E-14 0.619E-14
   -.223E-14 -.902E-14 0.103E-13   -.611E-16 -.996E-17 0.738E-17   -.248E-23 0.165E-23 -.165E-23   0.264E-14 -.430E-14 0.619E-14

 POSITION                                       TOTAL-FORCE (eV/Angst)
      0.00000      0.00000      0.00000        -0.000000     -0.000000      0.000000
    total drift:                                0.000000     -0.000000      0.000000

  FREE ENERGIE OF THE ION-ELECTRON SYSTEM (eV)
  free  energy   TOTEN  =        -1.90486043 eV

  energy  without entropy=       -1.90535933  energy(sigma->0) =       -1.90502673

 reached required accuracy - stopping structural energy minimisation

 total charge

[...]

 magnetization (x)

# of ion       s       p       d       tot
    1        0.000   0.000   0.000   0.000