 vasp.5.4.4.18Apr17-6-g9f103f2a35 (build Aug 12 2020 11:57:02) complex

 executed on             LinuxIFC date 2021.02.02  18:37:46

 INCAR:
 POTCAR:    PAW_PBE Li_sv 10Sep2004
 POTCAR:    PAW_PBE P 06Sep2000
 POTCAR:    PAW_PBE Li_sv 10Sep2004
   VRHFIN =Li: 1s2s2p

   TITEL  = PAW_PBE Li_sv 10Sep2004
   POMASS =    7.010; ZVAL   =    3.000    mass and valenz
   ENMAX  =  499.034; ENMIN  =  374.276 eV

 POTCAR:    PAW_PBE P 06Sep2000
   VRHFIN =P : s2p3

   TITEL  = PAW_PBE P 06Sep2000
   POMASS =   30.974; ZVAL   =    5.000    mass and valenz
   ENMAX  =  255.040; ENMIN  =  191.280 eV

 Optimization of the real space projectors (new method)

 maximal supplied QI-value         = 22.11
 optimisation between [QCUT,QGAM] = [ 11.50, 23.22] = [ 37.02,150.92] Ry
 Optimized for a Real-space Cutoff    1.08 Angstroem

   l    n(q)    QCUT    max X(q) W(low)/X(q) W(high)/X(q)  e(spline)
   0      7    11.497    10.506    0.36E-04    0.62E-04    0.14E-07
   0      7    11.497     8.367    0.65E-04    0.14E-03    0.28E-07
   1      7    11.497     8.983    0.21E-03    0.43E-03    0.90E-07
 Optimization of the real space projectors (new method)

 maximal supplied QI-value         = 19.84
 optimisation between [QCUT,QGAM] = [ 11.51, 23.22] = [ 37.09,150.92] Ry
 Optimized for a Real-space Cutoff    1.21 Angstroem

   l    n(q)    QCUT    max X(q) W(low)/X(q) W(high)/X(q)  e(spline)
   0      8    11.508   160.924    0.96E-04    0.17E-03    0.52E-07
   0      8    11.508   130.086    0.95E-04    0.17E-03    0.51E-07
   1      8    11.508    74.434    0.16E-03    0.74E-04    0.91E-07
   1      8    11.508    49.120    0.16E-03    0.71E-04    0.89E-07
  PAW_PBE Li_sv 10Sep2004               :
  PAW_PBE P 06Sep2000                   :

 POSCAR: Li6 P2
  positions in direct lattice
 exchange correlation table for  LEXCH =        8
   RHO(1)=    0.500       N(1)  =     2000
   RHO(2)=  100.500       N(2)  =     4000

 ion  position               nearest neighbor table
   1  0.000  0.000  0.250-   7 2.45   7 2.45   7 2.45
   2  0.000  0.000  0.750-   8 2.45   8 2.45   8 2.45
   3  0.333  0.667  0.584-   6 2.51   7 2.53   8 2.75   8 2.75   8 2.75
   4  0.667  0.333  0.084-   5 2.51   8 2.53   7 2.75   7 2.75   7 2.75
   5  0.667  0.333  0.416-   4 2.51   8 2.53   7 2.75   7 2.75   7 2.75
   6  0.333  0.667  0.916-   3 2.51   7 2.53   8 2.75   8 2.75   8 2.75
   7  0.333  0.667  0.250-   1 2.45   1 2.45   1 2.45   6 2.53   3 2.53   4 2.75   5 2.75   4 2.75
                             5 2.75   4 2.75   5 2.75
   8  0.667  0.333  0.750-   2 2.45   2 2.45   2 2.45   5 2.53   4 2.53   6 2.75   3 2.75   6 2.75
                             3 2.75   6 2.75   3 2.75

  LATTYP: Found a hexagonal cell.
 ALAT       =     4.2358580000
 C/A-ratio  =     1.7872926807

  Lattice vectors:

 A1 = (   2.1179290000,  -3.6683610000,   0.0000000000)
 A2 = (   2.1179290000,   3.6683610000,   0.0000000000)
 A3 = (   0.0000000000,   0.0000000000,   7.5707180000)

Analysis of symmetry for initial positions (statically):
 Subroutine PRICEL returns:
 Original cell was already a primitive cell.

 Routine SETGRP: Setting up the symmetry group for a
 hexagonal supercell.

 Subroutine GETGRP returns: Found 24 space group operations
 (whereof 12 operations were pure point group operations)
 out of a pool of 24 trial point group operations.

The static configuration has the point symmetry D_3d.
 The point group associated with its full space group is D_6h.

Analysis of symmetry for dynamics (positions and initial velocities):
 Subroutine PRICEL returns:
 Original cell was already a primitive cell.

[...]

The dynamic configuration has the point symmetry D_3d.
 The point group associated with its full space group is D_6h.

Analysis of structural, dynamic, and magnetic symmetry:
 Subroutine PRICEL returns:
 Original cell was already a primitive cell.

 Routine SETGRP: Setting up the symmetry group for a
 hexagonal supercell.

 Subroutine GETGRP returns: Found 24 space group operations
 (whereof 12 operations were pure point group operations)
 out of a pool of 24 trial point group operations.

The magnetic configuration has the point symmetry D_3d.
 The point group associated with its full space group is D_6h.

 Subroutine INISYM returns: Found 24 space group operations
 (whereof 12 operations are pure point group operations),
 and found     1 'primitive' translations

 KPOINTS: Fully automatic kpoint scheme

Automatic generation of k-mesh.
 generate k-points for:    9    9    4
Space group operators:
 irot       det(A)        alpha          n_x          n_y          n_z        tau_x        tau_y        tau_z
    1     1.000000     0.000001     1.000000     0.000000     0.000000     0.000000     0.000000     0.000000
    2    -1.000000     0.000001     1.000000     0.000000     0.000000     0.000000     0.000000     0.000000
    3     1.000000   120.000000     0.000000     0.000000    -1.000000     0.000000     0.000000     0.000000
    4    -1.000000   120.000000     0.000000     0.000000    -1.000000     0.000000     0.000000     0.000000
    5     1.000000   120.000000     0.000000     0.000000     1.000000     0.000000     0.000000     0.000000
    6    -1.000000   120.000000     0.000000     0.000000     1.000000     0.000000     0.000000     0.000000
    7     1.000000   180.000000     0.500000    -0.866025     0.000000     0.000000     0.000000     0.000000
    8    -1.000000   180.000000     0.500000    -0.866025     0.000000     0.000000     0.000000     0.000000
    9     1.000000   180.000000    -0.500000    -0.866025     0.000000     0.000000     0.000000     0.000000
   10    -1.000000   180.000000    -0.500000    -0.866025     0.000000     0.000000     0.000000     0.000000
   11     1.000000   180.000000     1.000000     0.000000     0.000000     0.000000     0.000000     0.000000
   12    -1.000000   180.000000     1.000000     0.000000     0.000000     0.000000     0.000000     0.000000
   13     1.000000    60.000000     0.000000     0.000000    -1.000000     0.000001     0.000000     0.500000
   14    -1.000000    60.000000     0.000000     0.000000    -1.000000     0.000001     0.000000     0.500000
   15     1.000000   180.000000     0.000000     0.000000     1.000000     0.000000     0.000000     0.500000
   16    -1.000000   180.000000     0.000000     0.000000     1.000000     0.000000     0.000000     0.500000
   17     1.000000    60.000000     0.000000     0.000000     1.000000     0.000000     0.000000     0.500000
   18    -1.000000    60.000000     0.000000     0.000000     1.000000     0.000000     0.000000     0.500000
   19     1.000000   180.000000     0.000000     1.000000     0.000000     0.000000     0.000000     0.500000
   20    -1.000000   180.000000     0.000000     1.000000     0.000000     0.000000     0.000000     0.500000
   21     1.000000   180.000000     0.866025     0.500000     0.000000     0.000001     0.000000     0.500000
   22    -1.000000   180.000000     0.866025     0.500000     0.000000     0.000001     0.000000     0.500000
   23     1.000000   180.000000     0.866025    -0.500000     0.000000     0.000000     0.000000     0.500000
   24    -1.000000   180.000000     0.866025    -0.500000     0.000000     0.000000     0.000000     0.500000

 Subroutine IBZKPT returns following result:

 Found     36 irreducible k-points:

 Following reciprocal coordinates:
            Coordinates               Weight
  0.000000  0.000000  0.000000      1.000000
  0.111111  0.000000  0.000000      6.000000
  0.222222 -0.000000  0.000000      6.000000
  0.333333  0.000000  0.000000      6.000000
  0.444444 -0.000000  0.000000      6.000000
  0.111111  0.111111  0.000000      6.000000
  0.222222  0.111111  0.000000     12.000000
  0.333333  0.111111  0.000000     12.000000
  0.444444  0.111111  0.000000      6.000000
  0.222222  0.222222  0.000000      6.000000
  0.333333  0.222222  0.000000     12.000000
  0.333333  0.333333  0.000000      2.000000
  0.000000  0.000000  0.250000      2.000000
  0.111111  0.000000  0.250000     12.000000
  0.222222 -0.000000  0.250000     12.000000
  0.333333  0.000000  0.250000     12.000000
  0.444444 -0.000000  0.250000     12.000000
  0.111111  0.111111  0.250000     12.000000
  0.222222  0.111111  0.250000     24.000000
  0.333333  0.111111  0.250000     24.000000
  0.444444  0.111111  0.250000     12.000000
  0.222222  0.222222  0.250000     12.000000
  0.333333  0.222222  0.250000     24.000000
  0.333333  0.333333  0.250000      4.000000
  0.000000  0.000000  0.500000      1.000000
  0.111111  0.000000  0.500000      6.000000
  0.222222 -0.000000  0.500000      6.000000
  0.333333  0.000000  0.500000      6.000000
  0.444444 -0.000000  0.500000      6.000000
  0.111111  0.111111  0.500000      6.000000
  0.222222  0.111111  0.500000     12.000000
  0.333333  0.111111  0.500000     12.000000
  0.444444  0.111111  0.500000      6.000000
  0.222222  0.222222  0.500000      6.000000
  0.333333  0.222222  0.500000     12.000000
  0.333333  0.333333  0.500000      2.000000

 Following cartesian coordinates:
            Coordinates               Weight
  0.000000  0.000000  0.000000      1.000000
  0.026231 -0.015145  0.000000      6.000000
  0.052462 -0.030289  0.000000      6.000000
  0.078693 -0.045434  0.000000      6.000000
  0.104924 -0.060578  0.000000      6.000000
  0.052462  0.000000  0.000000      6.000000
  0.078693 -0.015145  0.000000     12.000000
  0.104924 -0.030289  0.000000     12.000000
  0.131155 -0.045434  0.000000      6.000000
  0.104924  0.000000  0.000000      6.000000
  0.131155 -0.015145  0.000000     12.000000
  0.157386  0.000000  0.000000      2.000000
  0.000000  0.000000  0.033022      2.000000
  0.026231 -0.015145  0.033022     12.000000
  0.052462 -0.030289  0.033022     12.000000
  0.078693 -0.045434  0.033022     12.000000
  0.104924 -0.060578  0.033022     12.000000
  0.052462  0.000000  0.033022     12.000000
  0.078693 -0.015145  0.033022     24.000000
  0.104924 -0.030289  0.033022     24.000000
  0.131155 -0.045434  0.033022     12.000000
  0.104924  0.000000  0.033022     12.000000
  0.131155 -0.015145  0.033022     24.000000
  0.157386  0.000000  0.033022      4.000000
  0.000000  0.000000  0.066044      1.000000
  0.026231 -0.015145  0.066044      6.000000
  0.052462 -0.030289  0.066044      6.000000
  0.078693 -0.045434  0.066044      6.000000
  0.104924 -0.060578  0.066044      6.000000
  0.052462  0.000000  0.066044      6.000000
  0.078693 -0.015145  0.066044     12.000000
  0.104924 -0.030289  0.066044     12.000000
  0.131155 -0.045434  0.066044      6.000000
  0.104924  0.000000  0.066044      6.000000
  0.131155 -0.015145  0.066044     12.000000
  0.157386  0.000000  0.066044      2.000000

 TETIRR: Found    328 inequivalent tetrahedra from     1944

 SYSTEM =  unknown system
 POSCAR =  Li6 P2

 Startparameter for this run:
   NWRITE =      2    write-flag & timer
   PREC   = accura    normal or accurate (medium, high low for compatibility)
   ISTART =      0    job   : 0-new  1-cont  2-samecut
   ICHARG =      2    charge: 1-file 2-atom 10-const
   ISPIN  =      2    spin polarized calculation?
[...]

 maximum and minimum number of plane-waves per node :       548      512

 maximum number of plane-waves:      3216
 maximum index in each direction:
   IXMAX=    7   IYMAX=    7   IZMAX=   14
   IXMIN=   -8   IYMIN=   -8   IZMIN=  -14

 real space projection operators:
  max/ min on nodes  :        178.44        162.33

 parallel 3D FFT for wavefunctions:
    minimum data exchange during FFTs selected (reduces bandwidth)
 parallel 3D FFT for charge:
    minimum data exchange during FFTs selected (reduces bandwidth)

 Broyden mixing: mesh for mixing (old mesh)
   NGX = 15   NGY = 15   NGZ = 29
  (NGX  = 64   NGY  = 64   NGZ  =112)
  gives a total of   6525 points

 initial charge density was supplied:
 charge density of overlapping atoms calculated
 number of electron      28.0000000 magnetization       0.0000000
 keeping initial charge density in first step

 Maximum index for non-local projection operator          592
 Maximum index for augmentation-charges          625 (set IRDMAX)

 First call to EWALD:  gamma=   0.362
 Maximum number of real-space cells 4x 4x 2
 Maximum number of reciprocal cells 2x 2x 4

--------------------------------------- Iteration      1(   1)  ---------------------------------------

 BZINTS: Fermi energy: 11.500659; 28.000000 electrons
         Band energy:-351.655973;  BLOECHL correction: -0.087360

 eigenvalue-minimisations  :  2880
 total energy-change (2. order) : 0.1522652E+03  (-0.1255215E+04)
 number of electron      28.0000000 magnetization       0.0000000
 augmentation part       28.0000000 magnetization       0.0000000

 Free energy of the ion-electron system (eV)
  alpha Z        PSCENC =        20.50366002
  Ewald energy   TEWEN  =      -836.20080173
  -Hartree energ DENC   =      -253.83226653
  -exchange      EXHF   =         0.00000000
  -V(xc)+E(xc)   XCENC  =        80.83934098
  PAW double counting   =       758.08981490     -834.19955962
  entropy T*S    EENTRO =         0.00000000
  eigenvalues    EBANDS =      -351.65597343
  atomic energy  EATOM  =      1568.72097452
  Solvation  Ediel_sol  =         0.00000000
  free energy    TOTEN  =       152.26518909 eV

  energy without entropy =      152.26518909  energy(sigma->0) =      152.26518909

[...]

 eigenvalue-minimisations  :  3268
 total energy-change (2. order) :-0.1533488E+03  (-0.1472248E+03)
 number of electron      28.0000000 magnetization       0.0000000
 augmentation part       28.0000000 magnetization       0.0000000

[...]

 Broyden mixing:
  rms(total) = 0.52210E+00    rms(broyden)= 0.52162E+00
  rms(prec ) = 0.83253E+00
  weight for this iteration     100.00

[...]

 eigenvalues of (default mixing * dielectric matrix)
  average eigenvalue GAMMA=   1.8985
  1.8985

[...]

 average (electrostatic) potential at core
  the test charge radii are     0.7079  0.9587
  (the norm of the test charge is              1.0000)
       1 -61.6735       2 -61.6735       3 -62.0193       4 -62.0193       5 -62.0193
       6 -62.0193       7 -84.3489       8 -84.3490

 E-fermi :   2.6581     XC(G=0):  -8.5683     alpha+bet :-11.3830

 spin component 1

 k-point     1 :       0.0000    0.0000    0.0000
  band No.  band energies     occupation
      1     -42.9599      1.00000
      2     -42.9345      1.00000
      3     -42.9309      1.00000
      4     -42.9059      1.00000
      5     -42.5810      1.00000
      6     -42.5808      1.00000
      7      -6.7167      1.00000
      8      -6.3370      1.00000
      9      -0.7288      1.00000
     10       1.9974      1.00000
     11       2.1538      1.00000
     12       2.1538      1.00000
     13       2.5618      1.00000
     14       2.5618      1.00000
     15       4.9268      0.00000
     16       6.4383      0.00000
     17       6.4909      0.00000
     18       6.5007      0.00000
     19       6.8337      0.00000
     20       6.8340      0.00000

[...]

 soft charge-density along one line, spin component           1
         0         1         2         3         4         5         6         7         8         9
 total charge-density along one line

[...]

------------------------ aborting loop because EDIFF is reached ----------------------------------------

 total charge

# of ion       s       p       d       tot
    1        2.032   0.072   0.000   2.105
    2        2.032   0.072   0.000   2.105
    3        2.024   0.060   0.000   2.084
    4        2.024   0.060   0.000   2.084
    5        2.024   0.060   0.000   2.084
    6        2.024   0.060   0.000   2.084
    7        1.001   1.532   0.000   2.533
    8        1.001   1.532   0.000   2.533
tot         14.162   3.449   0.000  17.611

 magnetization (x)

[...]

  FORCE on cell =-STRESS in cart. coord.  units (eV):
  Direction    XX          YY          ZZ          XY          YZ          ZX
  Alpha Z    20.50366    20.50366    20.50366
  Ewald    -264.40526  -264.40596  -307.38972    -0.00000     0.00000    -0.00000
  Hartree    94.36759    94.36746    68.12756    -0.00000    -0.00000    -0.00000
  E(xc)    -115.18890  -115.18876  -115.26331     0.00000     0.00000     0.00000
  Local    -175.94703  -175.94722  -104.38776     0.00000     0.00000     0.00000
  n-local     5.71359     6.31594     5.57825     0.59647     0.12258    -0.09753
  augment    84.60441    84.60527    84.68668    -0.00000     0.00000     0.00000
  Kinetic   345.90652   353.73372   347.93125     5.15650     0.43730    -0.35252
  Fock        0.00000     0.00000     0.00000     0.00000     0.00000     0.00000
  Total      -0.23065    -0.23065    -0.21340     0.00000     0.00000    -0.00000
  in kB      -3.14132    -3.14132    -2.90646     0.00000     0.00000    -0.00000

 VOLUME and BASIS-vectors are now :
  energy-cutoff  :      520.00
  volume of cell :      117.64
      direct lattice vectors                 reciprocal lattice vectors
     2.117929000 -3.668361000  0.000000000     0.236079680 -0.136300653  0.000000000
     2.117929000  3.668361000  0.000000000     0.236079680  0.136300653  0.000000000
     0.000000000  0.000000000  7.570718000     0.000000000  0.000000000  0.132087868

[...]

 FORCES acting on ions
    electron-ion (+dipol)            ewald-force                    non-local-force                 convergence-correction
   -.805E-13 0.343E-03 -.179E-06   0.283E-14 0.384E-04 -.713E-14   0.867E-18 -.173E-17 0.186E-19   -.113E-14 -.997E-07 -.366E-10
   0.718E-13 0.300E-03 -.179E-06   -.503E-14 -.384E-04 0.535E-14   -.260E-17 -.520E-17 0.203E-19   -.581E-15 0.734E-07 -.366E-10
   0.976E-07 -.753E-03 0.606E+01   -.120E-14 -.150E-03 -.641E+01   -.651E-18 -.217E-17 0.353E+00   -.553E-14 0.195E-07 0.281E-03
   0.976E-07 0.131E-02 0.606E+01   0.204E-14 0.150E-03 -.641E+01   -.759E-18 0.867E-18 0.353E+00   0.650E-15 -.255E-07 0.281E-03
   -.976E-07 0.136E-02 -.606E+01   0.215E-14 0.150E-03 0.641E+01   0.000E+00 0.304E-17 -.353E+00   0.387E-14 -.229E-07 -.281E-03
   -.976E-07 -.804E-03 -.606E+01   -.635E-15 -.150E-03 0.641E+01   -.152E-17 -.304E-17 -.353E+00   0.275E-14 0.170E-07 -.281E-03
   0.280E-12 -.437E-03 0.585E-06   -.579E-14 -.237E-03 -.301E-14   0.139E-16 -.347E-16 0.260E-17   0.104E-13 0.833E-07 0.207E-09
   0.976E-13 0.594E-03 0.585E-06   0.515E-14 0.237E-03 0.172E-13   0.173E-16 0.486E-16 -.260E-17   -.996E-14 -.817E-07 0.207E-09
   0.101E-11 0.191E-02 0.522E-05   -.478E-15 -.323E-15 0.178E-14   0.266E-16 0.564E-17 -.555E-16   0.417E-15 -.364E-07 0.351E-09

 POSITION                                       TOTAL-FORCE (eV/Angst)
      0.00000      0.00000      1.89268        -0.000000      0.000000     -0.000000
      0.00000      0.00000      5.67804        -0.000000     -0.000000     -0.000000
      2.11793      1.22279      4.42220         0.000000     -0.000000     -0.001219
      2.11793     -1.22279      0.63684         0.000000      0.000000     -0.001219
      2.11793     -1.22279      3.14852         0.000000      0.000000      0.001219
      2.11793      1.22279      6.93388         0.000000     -0.000000      0.001219
      2.11793      1.22279      1.89268        -0.000000      0.000000     -0.000000
      2.11793     -1.22279      5.67804        -0.000000     -0.000000     -0.000000
    total drift:                                0.000000      0.001914      0.000005

  FREE ENERGIE OF THE ION-ELECTRON SYSTEM (eV)
  free  energy   TOTEN  =       -27.92868621 eV

  energy  without entropy=      -27.92868621  energy(sigma->0) =      -27.92868621

[...]

 d Force = 0.3270649E-06[ 0.368E-06, 0.286E-06]  d Energy = 0.6921605E-03-0.692E-03
 d Force = 0.1508173E-02[ 0.151E-02, 0.151E-02]  d Ewald  = 0.1134140E+01-0.113E+01

 Steepest descent step on ions:
 trial-energy change:   -0.000692  1 .order   -0.000671   -0.000917   -0.000426
  (g-gl).g = 0.917E-03      g.g   = 0.917E-03  gl.gl    = 0.000E+00
 g(Force)  = 0.287E-06   g(Stress)= 0.916E-03 ortho     = 0.000E+00
 gamma     =   0.00000
 trial     =   1.00000
 opt step  =   1.86961  (harmonic =   1.86961) maximal distance =0.00010997
 next E    =   -27.929543   (d E  =  -0.00086)

 real space projection operators:
  max/ min on nodes  :        180.94        165.39

[...]

 eigenvalue-minimisations  :  3492
 total energy-change (2. order) :-0.6194381E-03  (-0.1072185E-02)
 number of electron      28.0000013 magnetization       0.0000000
 augmentation part        4.5990704 magnetization      -0.0000351

[...]

 Broyden mixing:
  rms(total) = 0.26685E-02    rms(broyden)= 0.26643E-02
  rms(prec ) = 0.29942E-02
  weight for this iteration     100.00

 eigenvalues of (default mixing * dielectric matrix)
  average eigenvalue GAMMA=   1.9140
  3.2218  1.0116  1.5087

[...]

--------------------------------------- Iteration      3(   5)  ---------------------------------------

[...]

 eigenvalue-minimisations  :  1963
 total energy-change (2. order) : 0.5505377E-05  (-0.7488258E-07)
 number of electron      28.0000014 magnetization      -0.0000000
 augmentation part        4.6059789 magnetization      -0.0000064

 Free energy of the ion-electron system (eV)
  alpha Z        PSCENC =        20.66042269
  Ewald energy   TEWEN  =      -838.32370236
  -Hartree energ DENC   =      -256.19652778
  -exchange      EXHF   =         0.00000000
  -V(xc)+E(xc)   XCENC  =        81.60124285
  PAW double counting   =      1431.75748279    -1509.04586167
  entropy T*S    EENTRO =         0.00000000
  eigenvalues    EBANDS =      -527.10358645
  atomic energy  EATOM  =      1568.72097452
  Solvation  Ediel_sol  =         0.00000000
  free energy    TOTEN  =       -27.92955540 eV

  energy without entropy =      -27.92955540  energy(sigma->0) =      -27.92955540

 average (electrostatic) potential at core
  the test charge radii are     0.7079  0.9587
  (the norm of the test charge is              1.0000)
       1 -61.6166       2 -61.6165       3 -61.9627       4 -61.9627       5 -61.9627
       6 -61.9627       7 -84.3009       8 -84.3009

 E-fermi :   2.6816     XC(G=0):  -8.5943     alpha+bet :-11.4701

[...]

 spin component 2

[...]

 k-point    36 :       0.3333    0.3333    0.5000
  band No.  band energies     occupation
      1     -42.8874      1.00000
      2     -42.8874      1.00000
      3     -42.8629      1.00000
      4     -42.8629      1.00000
      5     -42.5247      1.00000
      6     -42.5247      1.00000
      7      -6.0338      1.00000
      8      -6.0338      1.00000
      9      -0.1084      1.00000
     10      -0.1084      1.00000
     11       0.3135      1.00000
     12       0.3135      1.00000
     13       1.3913      1.00000
     14       1.3913      1.00000
     15       5.2169      0.00000
     16       5.2170      0.00000
     17       6.5902      0.00000
     18       6.5902      0.00000
     19       9.1984      0.00000
     20       9.1988      0.00000

[...]

 soft charge-density along one line, spin component           2
         0         1         2         3         4         5         6         7         8         9
 total charge-density along one line

------------------------ aborting loop because EDIFF is reached ----------------------------------------

[...]

  FORCE on cell =-STRESS in cart. coord.  units (eV):
  Direction    XX          YY          ZZ          XY          YZ          ZX
  Alpha Z    20.66042    20.66042    20.66042
  Ewald    -265.05344  -265.05414  -308.21627     0.00000    -0.00000     0.00000
  Hartree    94.15319    94.15306    67.90414     0.00000    -0.00000    -0.00000
  E(xc)    -115.26127  -115.26120  -115.33559    -0.00000     0.00000     0.00000
  Local    -175.27228  -175.27246  -103.51627     0.00000     0.00000     0.00000
  n-local     5.12875     5.68969     4.97376     0.58444     0.12318    -0.09564
  augment    84.41412    84.41495    84.49950     0.00000     0.00000     0.00000
  Kinetic   347.03553   354.88900   349.01987     5.18360     0.44010    -0.35115
  Fock        0.00000     0.00000     0.00000     0.00000     0.00000     0.00000
  Total       0.01217     0.01217    -0.01043     0.00000     0.00000    -0.00000
  in kB       0.16708     0.16708    -0.14318     0.00000     0.00000    -0.00000

 VOLUME and BASIS-vectors are now :
  energy-cutoff  :      520.00
  volume of cell :      116.75
      direct lattice vectors                 reciprocal lattice vectors
     2.112421492 -3.658821714  0.000000000     0.236695187 -0.136656016 -0.000000000
     2.112421492  3.658821714 -0.000000000     0.236695187  0.136656016 -0.000000000
     0.000000000  0.000000000  7.552502859     0.000000000  0.000000000  0.132406438

  length of vectors
     4.224843298  4.224843298  7.552502859     0.273312053  0.273312053  0.132406438

 FORCES acting on ions
    electron-ion (+dipol)            ewald-force                    non-local-force                 convergence-correction
   0.349E-13 0.344E-03 -.173E-06   0.722E-14 0.386E-04 -.181E-14   -.260E-17 0.781E-17 0.136E-19   -.522E-15 -.423E-06 -.322E-09
   -.141E-13 0.300E-03 -.174E-06   -.665E-14 -.386E-04 0.181E-14   -.173E-17 -.954E-17 -.271E-19   -.386E-14 0.406E-06 -.322E-09
   0.125E-06 -.753E-03 0.609E+01   0.994E-15 -.151E-03 -.644E+01   -.865E-18 0.868E-18 0.353E+00   0.262E-14 -.300E-07 -.171E-03
   0.125E-06 0.131E-02 0.609E+01   0.104E-14 0.151E-03 -.644E+01   -.540E-18 -.217E-18 0.353E+00   -.223E-14 0.334E-08 -.171E-03
   -.125E-06 0.136E-02 -.609E+01   -.220E-14 0.151E-03 0.644E+01   0.648E-18 -.290E-21 -.353E+00   0.955E-15 0.746E-08 0.171E-03
   -.125E-06 -.803E-03 -.609E+01   -.339E-15 -.151E-03 0.644E+01   0.648E-18 -.217E-18 -.353E+00   0.268E-14 -.342E-07 0.171E-03
   0.412E-12 -.435E-03 0.623E-06   -.798E-14 -.239E-03 0.408E-14   0.104E-16 -.139E-16 0.477E-17   0.304E-14 0.293E-06 0.317E-09
   -.318E-13 0.591E-03 0.623E-06   0.735E-14 0.239E-03 0.101E-13   0.208E-16 -.139E-16 0.130E-17   -.162E-14 -.283E-06 0.317E-09
   0.967E-12 0.191E-02 0.536E-05   -.571E-15 -.523E-15 -.355E-14   0.268E-16 -.291E-16 -.494E-16   0.106E-14 -.617E-07 -.150E-08

 POSITION                                       TOTAL-FORCE (eV/Angst)
      0.00000      0.00000      1.88813         0.000000      0.000000     -0.000000
      0.00000      0.00000      5.66438        -0.000000      0.000000     -0.000000
      2.11242      1.21961      4.41145         0.000000     -0.000000      0.000218
      2.11242     -1.21961      0.63520         0.000000      0.000000      0.000218
      2.11242     -1.21961      3.14105        -0.000000     -0.000000     -0.000218
      2.11242      1.21961      6.91730        -0.000000     -0.000000     -0.000218
      2.11242      1.21961      1.88813         0.000000     -0.000000     -0.000000
      2.11242     -1.21961      5.66438        -0.000000      0.000000     -0.000000
    total drift:                                0.000000      0.001911      0.000005

  FREE ENERGIE OF THE ION-ELECTRON SYSTEM (eV)
  free  energy   TOTEN  =       -27.92955540 eV

  energy  without entropy=      -27.92955540  energy(sigma->0) =      -27.92955540

 d Force = 0.1376555E-06[-0.445E-07, 0.320E-06]  d Energy = 0.1770281E-03-0.177E-03
 d Force = 0.1315222E-02[ 0.132E-02, 0.131E-02]  d Ewald  = 0.9887603E+00-0.987E+00

 reached required accuracy - stopping structural energy minimisation

 total charge

[...]

 magnetization (x)

# of ion       s       p       d       tot
    1        0.000   0.000   0.000   0.000
    2        0.000   0.000   0.000   0.000
    3        0.000   0.000   0.000   0.000
    4        0.000   0.000   0.000   0.000
    5        0.000   0.000   0.000   0.000
    6        0.000   0.000   0.000   0.000
    7       -0.000  -0.000   0.000  -0.000
    8       -0.000  -0.000   0.000  -0.000
tot         -0.000   0.000   0.000   0.000

 BZINTS: Fermi energy:  2.681617; 28.000000 electrons
         Band energy:-527.103586;  BLOECHL correction:  0.000000