 vasp.5.4.4.18Apr17-6-g9f103f2a35 (build Aug 12 2020 11:57:02) complex

 executed on             LinuxIFC date 2021.01.31  03:18:48

 INCAR:
 POTCAR:    PAW_PBE Li_sv 10Sep2004
 POTCAR:    PAW_PBE P 06Sep2000
 POTCAR:    PAW_PBE N 08Apr2002
 POTCAR:    PAW_PBE Li_sv 10Sep2004
   VRHFIN =Li: 1s2s2p

   TITEL  = PAW_PBE Li_sv 10Sep2004
   POMASS =    7.010; ZVAL   =    3.000    mass and valenz
   ENMAX  =  499.034; ENMIN  =  374.276 eV

 POTCAR:    PAW_PBE P 06Sep2000
   VRHFIN =P : s2p3

   TITEL  = PAW_PBE P 06Sep2000
   POMASS =   30.974; ZVAL   =    5.000    mass and valenz
   ENMAX  =  255.040; ENMIN  =  191.280 eV

 POTCAR:    PAW_PBE N 08Apr2002
   VRHFIN =N: s2p3

   TITEL  = PAW_PBE N 08Apr2002
   POMASS =   14.001; ZVAL   =    5.000    mass and valenz
   ENMAX  =  400.000; ENMIN  =  300.000 eV

 Optimization of the real space projectors (new method)

 maximal supplied QI-value         = 22.11
 optimisation between [QCUT,QGAM] = [ 11.50, 23.22] = [ 37.02,150.92] Ry
 Optimized for a Real-space Cutoff    1.08 Angstroem

   l    n(q)    QCUT    max X(q) W(low)/X(q) W(high)/X(q)  e(spline)
   0      7    11.497    10.506    0.36E-04    0.62E-04    0.14E-07
   0      7    11.497     8.367    0.65E-04    0.14E-03    0.28E-07
   1      7    11.497     8.983    0.21E-03    0.43E-03    0.90E-07
 Optimization of the real space projectors (new method)

[...]

   l    n(q)    QCUT    max X(q) W(low)/X(q) W(high)/X(q)  e(spline)
   0      8    11.508   160.924    0.96E-04    0.17E-03    0.52E-07
   0      8    11.508   130.086    0.95E-04    0.17E-03    0.51E-07
   1      8    11.508    74.434    0.16E-03    0.74E-04    0.91E-07
   1      8    11.508    49.120    0.16E-03    0.71E-04    0.89E-07
 Optimization of the real space projectors (new method)

 maximal supplied QI-value         = 25.13
 optimisation between [QCUT,QGAM] = [ 11.56, 23.12] = [ 37.43,149.72] Ry
 Optimized for a Real-space Cutoff    1.40 Angstroem

   l    n(q)    QCUT    max X(q) W(low)/X(q) W(high)/X(q)  e(spline)
   0     10    11.561    79.467    0.46E-04    0.78E-04    0.61E-06
   0     10    11.561    66.151    0.45E-04    0.77E-04    0.61E-06
   1      9    11.561    18.886    0.22E-03    0.13E-03    0.12E-05
   1      9    11.561    13.488    0.23E-03    0.13E-03    0.12E-05
  PAW_PBE Li_sv 10Sep2004               :
  PAW_PBE P 06Sep2000                   :
  PAW_PBE N 08Apr2002                   :

 POSCAR: Li2 P2 N4
  positions in direct lattice
 exchange correlation table for  LEXCH =        8
   RHO(1)=    0.500       N(1)  =     2000
   RHO(2)=  100.500       N(2)  =     4000

 ion  position               nearest neighbor table
   1  0.500  0.500  0.000-   6 2.11   7 2.11   8 2.11   5 2.11
   2  0.250  0.750  0.500-   7 2.11   5 2.11   6 2.11   8 2.11
   3  0.000  0.000  0.000-   5 1.65   6 1.65   7 1.65   8 1.65   4 2.92   4 2.92   4 2.92   4 2.92

   4  0.750  0.250  0.500-   5 1.65   6 1.65   7 1.65   8 1.65   3 2.92   3 2.92   3 2.92   3 2.92

   5  0.375  0.292  0.417-   3 1.65   4 1.65   1 2.11   2 2.11
   6  0.875  0.958  0.583-   3 1.65   4 1.65   2 2.11   1 2.11
   7  0.708  0.125  0.083-   3 1.65   4 1.65   1 2.11   2 2.11
   8  0.042  0.625  0.917-   3 1.65   4 1.65   2 2.11   1 2.11

  LATTYP: Found a body centered tetragonal cell.
 ALAT       =     4.5714480000
 C/A-ratio  =     1.5946474727

  Lattice vectors:

 A1 = (  -2.2857240000,   2.2857240000,   3.6449240000)
 A2 = (   2.2857240000,  -2.2857240000,   3.6449240000)
 A3 = (   2.2857240000,   2.2857240000,  -3.6449240000)

Analysis of symmetry for initial positions (statically):
 Subroutine PRICEL returns:
 Original cell was already a primitive cell.

 Routine SETGRP: Setting up the symmetry group for a
 body centered tetragonal supercell.

 Subroutine GETGRP returns: Found  8 space group operations
 (whereof  4 operations were pure point group operations)
 out of a pool of 16 trial point group operations.

The static configuration has the point symmetry S_4 .
 The point group associated with its full space group is D_2d.

Analysis of symmetry for dynamics (positions and initial velocities):
 Subroutine PRICEL returns:
 Original cell was already a primitive cell.

[...]

The dynamic configuration has the point symmetry S_4 .
 The point group associated with its full space group is D_2d.

Analysis of structural, dynamic, and magnetic symmetry:
 Subroutine PRICEL returns:
 Original cell was already a primitive cell.

 Routine SETGRP: Setting up the symmetry group for a
 body centered tetragonal supercell.

 Subroutine GETGRP returns: Found  8 space group operations
 (whereof  4 operations were pure point group operations)
 out of a pool of 16 trial point group operations.

The magnetic configuration has the point symmetry S_4 .
 The point group associated with its full space group is D_2d.

 Subroutine INISYM returns: Found  8 space group operations
 (whereof  4 operations are pure point group operations),
 and found     1 'primitive' translations

 KPOINTS: Fully automatic kpoint scheme

Automatic generation of k-mesh.
 generate k-points for:    8    8   10
Space group operators:
 irot       det(A)        alpha          n_x          n_y          n_z        tau_x        tau_y        tau_z
    1     1.000000     0.000001     1.000000     0.000000     0.000000     0.000000     0.000000     0.000000
    2    -1.000000    90.000000     0.000000     0.000000    -1.000000     0.000000     0.000000     0.000000
    3     1.000000   180.000000     0.000000     0.000000     1.000000     0.000000     0.000000     0.000000
    4    -1.000000    90.000000     0.000000     0.000000     1.000000     0.000000     0.000000     0.000000
    5     1.000000   180.000000     0.000000     1.000000     0.000000     0.750000     0.250000     0.500000
    6    -1.000000   180.000000     0.707107     0.707107     0.000000     0.750000     0.250000     0.500000
    7     1.000000   180.000000     1.000000     0.000000     0.000000     0.750000     0.250000     0.500000
    8    -1.000000   180.000000     0.707107    -0.707107     0.000000     0.750000     0.250000     0.500000

 Subroutine IBZKPT returns following result:

 Found    169 irreducible k-points:

 Following reciprocal coordinates:
            Coordinates               Weight
  0.000000  0.000000  0.000000      1.000000
  0.125000  0.000000 -0.000000      4.000000
  0.250000  0.000000 -0.000000      4.000000
  0.375000  0.000000 -0.000000      4.000000
  0.500000  0.000000 -0.000000      4.000000
  0.125000  0.125000 -0.000000      2.000000
  0.250000  0.125000 -0.000000      4.000000
  0.375000  0.125000 -0.000000      8.000000
  0.500000  0.125000 -0.000000      8.000000
 -0.375000  0.125000  0.000000      4.000000
 -0.250000  0.125000  0.000000      4.000000
 -0.125000  0.125000  0.000000      2.000000
  0.250000  0.250000 -0.000000      4.000000
  0.375000  0.250000 -0.000000      4.000000
  0.500000  0.250000 -0.000000      8.000000
 -0.375000  0.250000  0.000000      4.000000
 -0.250000  0.250000  0.000000      2.000000
  0.375000  0.375000 -0.000000      2.000000
  0.500000  0.375000 -0.000000      8.000000
 -0.375000  0.375000  0.000000      2.000000
  0.500000  0.500000 -0.000000      2.000000
  0.000000  0.000000  0.100000      2.000000
  0.125000  0.000000  0.100000      4.000000
  0.250000  0.000000  0.100000      4.000000
  0.375000  0.000000  0.100000      4.000000
  0.500000  0.000000  0.100000      8.000000
 -0.375000 -0.000000  0.100000      4.000000
 -0.250000  0.000000  0.100000      4.000000
 -0.125000  0.000000  0.100000      4.000000
  0.125000  0.125000  0.100000      2.000000
  0.250000  0.125000  0.100000      4.000000
  0.375000  0.125000  0.100000      8.000000
  0.500000  0.125000  0.100000      4.000000
 -0.375000  0.125000  0.100000      4.000000
 -0.250000  0.125000  0.100000      4.000000
 -0.125000  0.125000  0.100000      4.000000
  0.250000  0.250000  0.100000      4.000000
  0.375000  0.250000  0.100000      4.000000
  0.500000  0.250000  0.100000      4.000000
 -0.375000  0.250000  0.100000      4.000000
 -0.250000  0.250000  0.100000      4.000000
 -0.125000  0.250000  0.100000      4.000000
  0.375000  0.375000  0.100000      2.000000
  0.500000  0.375000  0.100000      4.000000
 -0.375000  0.375000  0.100000      4.000000
 -0.250000  0.375000  0.100000      4.000000
 -0.125000  0.375000  0.100000      4.000000
  0.500000  0.500000  0.100000      2.000000
 -0.375000  0.500000  0.100000      4.000000
 -0.250000  0.500000  0.100000      4.000000
 -0.125000  0.500000  0.100000      4.000000
 -0.375000 -0.375000  0.100000      2.000000
 -0.250000 -0.375000  0.100000      4.000000
 -0.125000 -0.375000  0.100000      8.000000
 -0.250000 -0.250000  0.100000      4.000000
 -0.125000 -0.250000  0.100000      4.000000
 -0.125000 -0.125000  0.100000      2.000000
  0.000000  0.000000  0.200000      2.000000
  0.125000  0.000000  0.200000      4.000000
  0.250000  0.000000  0.200000      4.000000
[...]
 -0.125000 -0.125000  0.400000      2.000000
  0.125000  0.125000  0.500000      2.000000
  0.250000  0.125000  0.500000      4.000000
  0.500000  0.125000  0.500000      4.000000
 -0.375000  0.125000  0.500000      4.000000
 -0.250000  0.125000  0.500000      4.000000
 -0.125000  0.125000  0.500000      2.000000
  0.375000  0.250000  0.500000      4.000000
  0.500000  0.250000  0.500000      4.000000
 -0.375000  0.250000  0.500000      4.000000
 -0.250000  0.250000  0.500000      2.000000
  0.375000  0.375000  0.500000      2.000000
  0.500000  0.375000  0.500000      4.000000
 -0.375000  0.375000  0.500000      2.000000
  0.500000  0.500000  0.500000      1.000000

 Following cartesian coordinates:
            Coordinates               Weight
  0.000000  0.000000  0.000000      1.000000
  0.000000  0.027344  0.017147      4.000000
  0.000000  0.054687  0.034294      4.000000
  0.000000  0.082031  0.051441      4.000000
  0.000000  0.109375  0.068589      4.000000
  0.027344  0.027344  0.034294      2.000000
  0.027344  0.054687  0.051441      4.000000
  0.027344  0.082031  0.068589      8.000000
  0.027344  0.109375  0.085736      8.000000
  0.027344 -0.082031 -0.034294      4.000000
  0.027344 -0.054687 -0.017147      4.000000
  0.027344 -0.027344  0.000000      2.000000
  0.054687  0.054687  0.068589      4.000000
  0.054687  0.082031  0.085736      4.000000
  0.054687  0.109375  0.102883      8.000000
  0.054687 -0.082031 -0.017147      4.000000
  0.054687 -0.054687  0.000000      2.000000
  0.082031  0.082031  0.102883      2.000000
  0.082031  0.109375  0.120030      8.000000
  0.082031 -0.082031  0.000000      2.000000
  0.109375  0.109375  0.137177      2.000000
  0.021875  0.021875  0.000000      2.000000
  0.021875  0.049219  0.017147      4.000000
  0.021875  0.076562  0.034294      4.000000
  0.021875  0.103906  0.051441      4.000000
  0.021875  0.131249  0.068589      8.000000
  0.021875 -0.060156 -0.051441      4.000000
  0.021875 -0.032812 -0.034294      4.000000
  0.021875 -0.005469 -0.017147      4.000000
  0.049219  0.049219  0.034294      2.000000
  0.049219  0.076562  0.051441      4.000000
  0.049219  0.103906  0.068589      8.000000
[...]

 Free energy of the ion-electron system (eV)
  alpha Z        PSCENC =        66.94452113
  Ewald energy   TEWEN  =     -1425.52345642
  -Hartree energ DENC   =      -340.30683721
  -exchange      EXHF   =         0.00000000
  -V(xc)+E(xc)   XCENC  =       114.39528366
  PAW double counting   =      1258.77423779    -1278.02615601
  entropy T*S    EENTRO =         0.00000000
  eigenvalues    EBANDS =         4.82795321
  atomic energy  EATOM  =      1815.77386823
  Solvation  Ediel_sol  =         0.00000000
  free energy    TOTEN  =       216.85941438 eV

  energy without entropy =      216.85941438  energy(sigma->0) =      216.85941438

[...]

 BZINTS: Fermi energy:  3.349328; 36.000000 electrons
         Band energy:-255.161465;  BLOECHL correction:  0.000000

 eigenvalue-minimisations  : 20800
 total energy-change (2. order) :-0.2599894E+03  (-0.2539305E+03)
 number of electron      36.0000000 magnetization       0.0000000
 augmentation part       36.0000000 magnetization       0.0000000

[...]

 Broyden mixing:
  rms(total) = 0.25120E+01    rms(broyden)= 0.25118E+01
  rms(prec ) = 0.43806E+01
  weight for this iteration     100.00

[...]

 eigenvalues of (default mixing * dielectric matrix)
  average eigenvalue GAMMA=   1.3786
  1.3786

[...]

 eigenvalue-minimisations  : 10478
 total energy-change (2. order) : 0.2369925E-06  ( 0.2626520E-06)
 number of electron      36.0000016 magnetization      -0.0000000
 augmentation part        1.9111827 magnetization      -0.0000012

[...]

 average (electrostatic) potential at core
  the test charge radii are     0.7079  0.9587  0.7089
  (the norm of the test charge is              1.0000)
       1 -57.6688       2 -57.6688       3 -84.4159       4 -84.4159       5 -62.1677
       6 -62.1677       7 -62.1677       8 -62.1677

 E-fermi :   4.8041     XC(G=0): -10.6006     alpha+bet :-14.2875

 spin component 1

 k-point     1 :       0.0000    0.0000    0.0000
  band No.  band energies     occupation
      1     -38.5939      1.00000
      2     -38.5707      1.00000
      3     -13.9935      1.00000
      4      -9.5198      1.00000
      5      -9.5198      1.00000
      6      -9.2645      1.00000
      7      -7.2928      1.00000
      8      -2.3331      1.00000
      9      -2.3331      1.00000
     10      -1.6490      1.00000
     11       0.9975      1.00000
     12       1.9409      1.00000
     13       2.3263      1.00000
     14       3.4222      1.00000
     15       3.4222      1.00000
     16       3.7920      1.00000
     17       3.7920      1.00000
     18       3.8999      1.00000
     19       8.5917      0.00000
     20      10.9180      0.00000
     21      13.2422      0.00000
     22      13.3189      0.00000
     23      13.6048      0.00000
     24      13.6173      0.00000

[...]

 soft charge-density along one line, spin component           1
         0         1         2         3         4         5         6         7         8         9
 total charge-density along one line

[...]

------------------------ aborting loop because EDIFF is reached ----------------------------------------

 total charge

# of ion       s       p       d       tot
    1        2.023   0.059   0.000   2.083
    2        2.023   0.059   0.000   2.083
    3        0.926   1.482   0.000   2.407
    4        0.926   1.482   0.000   2.408
    5        1.238   2.666   0.000   3.903
    6        1.231   2.680   0.000   3.911
    7        1.237   2.680   0.000   3.918
    8        1.235   2.684   0.000   3.920
tot         10.839  13.792   0.000  24.631

 magnetization (x)

[...]

  FORCE on cell =-STRESS in cart. coord.  units (eV):
  Direction    XX          YY          ZZ          XY          YZ          ZX
  Alpha Z    66.94452    66.94452    66.94452
  Ewald    -451.49604  -451.49604  -522.53381    -0.00000     0.00000     0.00000
  Hartree   138.77834   138.77834   113.70887    -0.00000    -0.00000    -0.00000
  E(xc)    -151.57994  -151.57994  -151.83892    -0.00002    -0.00002    -0.00002
  Local    -230.58375  -230.58375  -139.91365     0.00007     0.00008     0.00008
  n-local    14.11019    13.88528    14.70302     0.06945    -0.09459     0.02361
  augment    21.20913    21.20913    21.15945    -0.00005    -0.00010    -0.00010
  Kinetic   592.51029   592.50519   597.69563    -0.15098     0.68632    -0.17734
  Fock        0.00000     0.00000     0.00000     0.00000     0.00000     0.00000
  Total      -0.22226    -0.22226    -0.07490     0.00000     0.00000     0.00000
  in kB      -4.67488    -4.67488    -1.57542     0.00000     0.00000     0.00000

 VOLUME and BASIS-vectors are now :
  energy-cutoff  :      520.00
  volume of cell :       76.17
      direct lattice vectors                 reciprocal lattice vectors
    -2.285724000  2.285724000  3.644924000     0.000000000  0.218749070  0.137177071
     2.285724000 -2.285724000  3.644924000     0.218749070  0.000000000  0.137177071
     2.285724000  2.285724000 -3.644924000     0.218749070  0.218749070  0.000000000

[...]

 FORCES acting on ions
    electron-ion (+dipol)            ewald-force                    non-local-force                 convergence-correction
   0.224E-10 -.183E-07 -.159E-06   -.355E-14 0.355E-14 -.355E-14   -.108E-18 0.325E-18 0.217E-18   -.119E-06 -.121E-06 -.181E-06
   -.183E-07 0.227E-10 -.159E-06   -.533E-14 0.000E+00 -.711E-14   -.108E-18 -.488E-18 0.325E-18   -.121E-06 -.119E-06 -.181E-06
   -.615E-06 -.829E-06 -.615E-06   -.142E-13 0.711E-14 0.142E-13   -.139E-16 0.000E+00 -.694E-17   -.822E-08 -.491E-08 -.958E-08
   -.829E-06 -.615E-06 -.615E-06   0.142E-13 0.213E-13 0.213E-13   -.867E-18 0.260E-17 -.347E-17   -.491E-08 -.822E-08 -.958E-08
   -.667E+02 -.159E-06 -.247E-06   0.854E+02 0.195E-13 -.938E-14   -.187E+02 -.222E-15 0.666E-15   -.874E-03 0.169E-08 0.184E-08
   0.667E+02 -.388E-06 -.615E-06   -.854E+02 -.711E-14 0.445E-14   0.187E+02 0.222E-15 -.666E-15   0.874E-03 -.141E-07 -.177E-07
   -.388E-06 0.667E+02 -.615E-06   0.227E-13 -.854E+02 -.188E-13   0.222E-15 0.187E+02 -.666E-15   -.141E-07 0.874E-03 -.177E-07
   -.159E-06 -.667E+02 -.247E-06   0.206E-13 0.854E+02 -.456E-14   -.222E-15 -.187E+02 0.666E-15   0.169E-08 -.874E-03 0.184E-08
   -.232E-05 -.232E-05 -.327E-05   -.277E-13 0.000E+00 -.338E-14   -.355E-14 -.355E-14 -.987E-17   -.278E-06 -.278E-06 -.413E-06

 POSITION                                       TOTAL-FORCE (eV/Angst)
      0.00000      0.00000      3.64492         0.000000     -0.000000     -0.000000
      2.28572      0.00000      1.82246         0.000000     -0.000000      0.000000
      0.00000      0.00000      0.00000         0.000000     -0.000000     -0.000000
      0.00000      2.28572      1.82246         0.000000     -0.000000      0.000000
      0.76345      1.14286      0.91123         0.053839     -0.000000     -0.000000
      1.52228      1.14286      4.55616        -0.053839     -0.000000     -0.000000
     -1.14286      1.52228      2.73369         0.000000     -0.053839     -0.000000
      3.42859      0.76345     -0.91123         0.000000      0.053839     -0.000000
    total drift:                               -0.000003     -0.000003     -0.000004

  FREE ENERGIE OF THE ION-ELECTRON SYSTEM (eV)
  free  energy   TOTEN  =       -54.53110912 eV

  energy  without entropy=      -54.53110912  energy(sigma->0) =      -54.53110912

[...]

 d Force = 0.5288747E-03[ 0.499E-03, 0.559E-03]  d Energy = 0.8415322E-03-0.313E-03
 d Force = 0.8856117E+00[ 0.885E+00, 0.886E+00]  d Ewald  = 0.2334522E+01-0.145E+01

 Steepest descent step on ions:
 trial-energy change:   -0.000842  1 .order   -0.000858   -0.001189   -0.000526
  (g-gl).g = 0.119E-02      g.g   = 0.119E-02  gl.gl    = 0.000E+00
 g(Force)  = 0.559E-03   g(Stress)= 0.630E-03 ortho     = 0.000E+00
 gamma     =   0.00000
 trial     =   1.00000
 opt step  =   1.79373  (harmonic =   1.79373) maximal distance =0.00465891
 next E    =   -54.532175   (d E  =  -0.00107)

[...]

 d Force = 0.3764571E-03[ 0.357E-03, 0.396E-03]  d Energy = 0.1877351E-03 0.189E-03
 d Force = 0.7028163E+00[ 0.703E+00, 0.703E+00]  d Ewald  = 0.1855660E+01-0.115E+01

[...]

WARNING in EDDRMM: call to ZHEGV failed, returncode =   8  4      4
 BZINTS: Fermi energy:  4.977288; 36.000000 electrons
         Band energy:-216.678808;  BLOECHL correction:  0.000000

[...]

 d Force = 0.1648914E-03[-0.265E-03, 0.595E-03]  d Energy = 0.2857840E-03-0.121E-03
 d Force = 0.1169830E+01[ 0.117E+01, 0.117E+01]  d Ewald  = 0.8826202E+00 0.287E+00

 Conjugate gradient step on ions:
 trial-energy change:   -0.000286  1 .order   -0.000297   -0.000775    0.000180
  (g-gl).g = 0.926E-03      g.g   = 0.926E-03  gl.gl    = 0.119E-02
 g(Force)  = 0.362E-03   g(Stress)= 0.565E-03 ortho     = 0.658E-06
 gamma     =   0.77868
 trial     =   0.83577
 opt step  =   0.67826  (harmonic =   0.67826) maximal distance =0.00278835
 next E    =   -54.532453   (d E  =  -0.00031)

 real space projection operators:
  max/ min on nodes  :        425.27        416.71

[...]

 eigenvalue-minimisations  : 15320
 total energy-change (2. order) :-0.7129493E-05  (-0.1194129E-04)
 number of electron      36.0000017 magnetization       0.0000000
 augmentation part        1.9051753 magnetization       0.0000018

 Broyden mixing:
  rms(total) = 0.12713E-02    rms(broyden)= 0.12712E-02
  rms(prec ) = 0.22213E-02
  weight for this iteration     100.00

 eigenvalues of (default mixing * dielectric matrix)
  average eigenvalue GAMMA=   1.1102
  1.1102

[...]

--------------------------------------- Iteration      5(   3)  ---------------------------------------

[...]

 eigenvalue-minimisations  :  9283
 total energy-change (2. order) : 0.3621276E-05  (-0.6849146E-06)
 number of electron      36.0000017 magnetization       0.0000000
 augmentation part        1.9051753 magnetization       0.0000018

 Free energy of the ion-electron system (eV)
  alpha Z        PSCENC =        67.29573050
  Ewald energy   TEWEN  =     -1430.43020585
  -Hartree energ DENC   =      -388.49193337
  -exchange      EXHF   =         0.00000000
  -V(xc)+E(xc)   XCENC  =       118.73306378
  PAW double counting   =      5203.87836569    -5224.60464742
  entropy T*S    EENTRO =         0.00000000
  eigenvalues    EBANDS =      -216.68668719
  atomic energy  EATOM  =      1815.77386823
  Solvation  Ediel_sol  =         0.00000000
  free energy    TOTEN  =       -54.53244562 eV

  energy without entropy =      -54.53244562  energy(sigma->0) =      -54.53244562

 average (electrostatic) potential at core
  the test charge radii are     0.7079  0.9587  0.7089
  (the norm of the test charge is              1.0000)
       1 -57.5746       2 -57.5746       3 -84.3713       4 -84.3713       5 -62.1234
       6 -62.1234       7 -62.1234       8 -62.1234

 E-fermi :   4.9732     XC(G=0): -10.6292     alpha+bet :-14.3624

[...]

 spin component 2

[...]

 k-point   169 :       0.5000    0.5000    0.5000
  band No.  band energies     occupation
      1     -38.4881      1.00000
      2     -38.4881      1.00000
      3     -12.4283      1.00000
      4     -12.4283      1.00000
      5      -9.6680      1.00000
      6      -9.6680      1.00000
      7      -3.5611      1.00000
      8      -3.5611      1.00000
      9      -1.1709      1.00000
     10      -1.1709      1.00000
     11       1.6787      1.00000
     12       1.6787      1.00000
     13       2.1493      1.00000
     14       2.1493      1.00000
     15       2.4688      1.00000
     16       2.4688      1.00000
     17       4.6428      1.00000
     18       4.6428      1.00000
     19      10.2534      0.00000
     20      10.2534      0.00000
     21      11.8314      0.00000
     22      11.8314      0.00000
     23      13.0933      0.00000
     24      13.0933      0.00000

[...]

 soft charge-density along one line, spin component           2
         0         1         2         3         4         5         6         7         8         9
 total charge-density along one line

------------------------ aborting loop because EDIFF is reached ----------------------------------------

[...]

  FORCE on cell =-STRESS in cart. coord.  units (eV):
  Direction    XX          YY          ZZ          XY          YZ          ZX
  Alpha Z    67.29573    67.29573    67.29573
  Ewald    -453.01154  -453.01154  -524.40957     0.00000     0.00000     0.00000
  Hartree   137.90915   137.90915   112.67849    -0.00000    -0.00000    -0.00000
  E(xc)    -151.61818  -151.61818  -151.87790    -0.00002    -0.00002    -0.00002
  Local    -228.53140  -228.53140  -137.38876     0.00007     0.00008     0.00008
  n-local    13.78161    13.55553    14.39253     0.06957    -0.09383     0.02305
  augment    21.08896    21.08896    21.04076    -0.00005    -0.00011    -0.00011
  Kinetic   593.15661   593.17985   598.36235    -0.15391     0.70577    -0.18154
  Fock        0.00000     0.00000     0.00000     0.00000     0.00000     0.00000
  Total      -0.03049    -0.03049     0.09362     0.00000     0.00000     0.00000
  in kB      -0.64465    -0.64465     1.97953     0.00000     0.00000     0.00000

 VOLUME and BASIS-vectors are now :
  energy-cutoff  :      520.00
  volume of cell :       75.77
      direct lattice vectors                 reciprocal lattice vectors
    -2.279785674  2.279785674  3.644815432     0.000000000  0.219318862  0.137181158
     2.279785674 -2.279785674  3.644815432     0.219318862  0.000000000  0.137181158
     2.279785674  2.279785674 -3.644815432     0.219318862  0.219318862  0.000000000

  length of vectors
     4.866161215  4.866161215  4.866161215     0.258687907  0.258687907  0.310163709

 FORCES acting on ions
    electron-ion (+dipol)            ewald-force                    non-local-force                 convergence-correction
   -.121E-06 -.147E-06 -.229E-06   0.888E-14 0.355E-14 0.160E-13   -.108E-18 -.217E-18 0.217E-18   -.793E-07 0.426E-07 0.987E-07
   -.147E-06 -.121E-06 -.229E-06   0.533E-14 0.107E-13 0.124E-13   0.108E-18 -.542E-19 -.217E-18   0.426E-07 -.793E-07 0.987E-07
   -.653E-06 -.865E-06 -.677E-06   -.426E-13 0.000E+00 -.284E-13   0.139E-16 -.139E-16 0.000E+00   0.117E-07 0.158E-07 0.228E-07
   -.865E-06 -.653E-06 -.677E-06   0.426E-13 -.568E-13 -.284E-13   -.781E-17 -.434E-17 -.347E-17   0.158E-07 0.117E-07 0.228E-07
   -.662E+02 -.857E-07 -.279E-06   0.850E+02 0.249E-13 0.246E-13   -.188E+02 0.000E+00 0.000E+00   0.761E-02 0.245E-07 0.317E-07
   0.662E+02 -.520E-06 -.558E-06   -.850E+02 -.711E-14 -.232E-13   0.188E+02 0.000E+00 0.000E+00   -.761E-02 -.317E-07 -.305E-07
   -.520E-06 0.662E+02 -.558E-06   -.285E-13 -.850E+02 0.606E-14   0.000E+00 0.188E+02 0.000E+00   -.317E-07 -.761E-02 -.305E-07
   -.857E-07 -.662E+02 -.279E-06   0.284E-13 0.850E+02 0.214E-13   0.000E+00 -.188E+02 0.000E+00   0.245E-07 0.761E-02 0.317E-07
   -.295E-05 -.295E-05 -.349E-05   0.141E-13 0.000E+00 0.489E-15   0.000E+00 0.000E+00 -.347E-17   -.273E-07 -.273E-07 0.245E-06

 POSITION                                       TOTAL-FORCE (eV/Angst)
      0.00000      0.00000      3.64482        -0.000000      0.000000     -0.000000
      2.27979      0.00000      1.82241        -0.000000      0.000000      0.000000
      0.00000     -0.00000     -0.00000        -0.000000      0.000000     -0.000000
      0.00000      2.27979      1.82241        -0.000000     -0.000000     -0.000000
      0.76890      1.13989      0.91120        -0.008376      0.000000     -0.000000
      1.51089      1.13989      4.55602         0.008376     -0.000000     -0.000000
     -1.13989      1.51089      2.73361        -0.000000      0.008376     -0.000000
      3.41968      0.76890     -0.91120         0.000000     -0.008376     -0.000000
    total drift:                               -0.000003     -0.000003     -0.000003

  FREE ENERGIE OF THE ION-ELECTRON SYSTEM (eV)
  free  energy   TOTEN  =       -54.53244562 eV

  energy  without entropy=      -54.53244562  energy(sigma->0) =      -54.53244562

 d Force = 0.3583218E-04[ 0.217E-04, 0.500E-04]  d Energy = 0.2145423E-04 0.144E-04
 d Force =-0.2201907E+00[-0.220E+00,-0.220E+00]  d Ewald  =-0.1660526E+00-0.541E-01

 reached required accuracy - stopping structural energy minimisation

 total charge

[...]

 magnetization (x)

# of ion       s       p       d       tot
    1        0.000  -0.000   0.000  -0.000
    2        0.000  -0.000   0.000  -0.000
    3       -0.000  -0.000   0.000  -0.000
    4       -0.000  -0.000   0.000  -0.000
    5        0.000  -0.000   0.000  -0.000
    6        0.000  -0.000   0.000  -0.000
    7        0.000  -0.000   0.000  -0.000
    8       -0.000  -0.000   0.000  -0.000
tot          0.000  -0.000   0.000  -0.000

 BZINTS: Fermi energy:  4.973171; 36.000000 electrons
         Band energy:-216.686687;  BLOECHL correction:  0.000000