 vasp.6.1.2 22Jul20 (build Mar 20 2021 11:25:07) complex

 executed on             LinuxIFC date 2021.03.26  11:13:48

 INCAR:
 POTCAR:    PAW_PBE Li_sv 10Sep2004
 POTCAR:    PAW_PBE P 06Sep2000
|           W    W    AA    RRRRR   N    N  II  N    N   GGGG   !!!           |
|           W    W   A  A   R    R  NN   N  II  NN   N  G    G  !!!           |
|           W    W  A    A  R    R  N N  N  II  N N  N  G       !!!           |
|           W WW W  AAAAAA  RRRRR   N  N N  II  N  N N  G  GGG   !            |
|           WW  WW  A    A  R   R   N   NN  II  N   NN  G    G                |
|           W    W  A    A  R    R  N    N  II  N    N   GGGG   !!!           |
|     The value NCORE = 6 specified in the INCAR file was overwritten,        |
|     because it was not compatible with the 8 processes available:           |
|     NCORE = 1                                                               |
|     was used instead, please check that this makes sense for your           |
|     machine.                                                                |

 POTCAR:    PAW_PBE Li_sv 10Sep2004
   VRHFIN =Li: 1s2s2p

   TITEL  = PAW_PBE Li_sv 10Sep2004
   POMASS =    7.010; ZVAL   =    3.000    mass and valenz
   ENMAX  =  499.034; ENMIN  =  374.276 eV

 POTCAR:    PAW_PBE P 06Sep2000
   VRHFIN =P : s2p3

   TITEL  = PAW_PBE P 06Sep2000
   POMASS =   30.974; ZVAL   =    5.000    mass and valenz
   ENMAX  =  255.040; ENMIN  =  191.280 eV

 Optimization of the real space projectors (new method)

 maximal supplied QI-value         = 22.11
 optimisation between [QCUT,QGAM] = [ 11.50, 23.22] = [ 37.02,150.92] Ry
 Optimized for a Real-space Cutoff    1.08 Angstroem

   l    n(q)    QCUT    max X(q) W(low)/X(q) W(high)/X(q)  e(spline)
   0      7    11.497    10.506    0.36E-04    0.62E-04    0.14E-07
   0      7    11.497     8.367    0.65E-04    0.14E-03    0.28E-07
   1      7    11.497     8.983    0.21E-03    0.43E-03    0.90E-07
 Optimization of the real space projectors (new method)

 maximal supplied QI-value         = 19.84
 optimisation between [QCUT,QGAM] = [ 11.51, 23.22] = [ 37.09,150.92] Ry
 Optimized for a Real-space Cutoff    1.21 Angstroem

   l    n(q)    QCUT    max X(q) W(low)/X(q) W(high)/X(q)  e(spline)
   0      8    11.508   160.924    0.96E-04    0.17E-03    0.52E-07
   0      8    11.508   130.086    0.95E-04    0.17E-03    0.51E-07
   1      8    11.508    74.434    0.16E-03    0.74E-04    0.91E-07
   1      8    11.508    49.120    0.16E-03    0.71E-04    0.89E-07
  PAW_PBE Li_sv 10Sep2004               :
  PAW_PBE P 06Sep2000                   :

 POSCAR: Li12 P28
  positions in direct lattice
 exchange correlation table for  LEXCH =        8
   RHO(1)=    0.500       N(1)  =     2000
   RHO(2)=  100.500       N(2)  =     4000

 ion  position               nearest neighbor table
   1  0.850  0.307  0.816-  34 2.59  37 2.60  31 2.68
   2  0.350  0.193  0.184-  33 2.59  38 2.60  32 2.68
   3  0.150  0.807  0.684-  36 2.59  39 2.60  29 2.68
   4  0.650  0.693  0.316-  35 2.59  40 2.60  30 2.68
   5  0.569  0.026  0.015-  40 2.48  34 2.52  29 2.54  20 2.68
   6  0.069  0.474  0.985-  39 2.48  33 2.52  30 2.54  19 2.68
   7  0.431  0.526  0.485-  38 2.48  36 2.52  31 2.54  18 2.68
   8  0.931  0.974  0.515-  37 2.48  35 2.52  32 2.54  17 2.68
   9  0.402  0.301  0.691-  31 2.56  16 2.56  18 2.60  25 2.61
  10  0.902  0.199  0.309-  32 2.56  15 2.56  17 2.60  26 2.61
  11  0.598  0.801  0.809-  29 2.56  14 2.56  20 2.60  27 2.61
  12  0.098  0.699  0.191-  30 2.56  13 2.56  19 2.60  28 2.61
  13  0.281  0.875  0.318-  32 2.15  36 2.16  40 2.16  12 2.56
  14  0.781  0.625  0.682-  31 2.15  35 2.16  39 2.16  11 2.56
  15  0.719  0.375  0.182-  30 2.15  34 2.16  38 2.16  10 2.56
  16  0.219  0.125  0.818-  29 2.15  33 2.16  37 2.16   9 2.56
  17  0.638  0.048  0.388-  40 2.13  25 2.23  21 2.26  10 2.60   8 2.68
  18  0.138  0.452  0.612-  39 2.13  26 2.23  22 2.26   9 2.60   7 2.68
  19  0.362  0.548  0.112-  38 2.13  27 2.23  23 2.26  12 2.60   6 2.68
  20  0.862  0.952  0.888-  37 2.13  28 2.23  24 2.26  11 2.60   5 2.68
  21  0.534  0.943  0.566-  36 2.12  25 2.22  17 2.26
  22  0.034  0.557  0.434-  35 2.12  26 2.22  18 2.26
  23  0.466  0.443  0.934-  34 2.12  27 2.22  19 2.26
  24  0.966  0.057  0.066-  33 2.12  28 2.22  20 2.26
  25  0.406  0.134  0.495-  32 2.13  21 2.22  17 2.23   9 2.61
  26  0.906  0.366  0.505-  31 2.13  22 2.22  18 2.23  10 2.61
  27  0.594  0.634  0.005-  30 2.13  23 2.22  19 2.23  11 2.61
  28  0.094  0.866  0.995-  29 2.13  24 2.22  20 2.23  12 2.61
  29  0.317  0.928  0.881-  28 2.13  16 2.15   5 2.54  11 2.56   3 2.68
  30  0.817  0.572  0.119-  27 2.13  15 2.15   6 2.54  12 2.56   4 2.68
  31  0.683  0.428  0.619-  26 2.13  14 2.15   7 2.54   9 2.56   1 2.68
  32  0.183  0.072  0.381-  25 2.13  13 2.15   8 2.54  10 2.56   2 2.68
  33  0.129  0.219  0.995-  24 2.12  16 2.16   6 2.52   2 2.59
  34  0.629  0.281  0.005-  23 2.12  15 2.16   5 2.52   1 2.59
  35  0.871  0.719  0.505-  22 2.12  14 2.16   8 2.52   4 2.59
  36  0.371  0.781  0.495-  21 2.12  13 2.16   7 2.52   3 2.59
  37  0.966  0.071  0.734-  20 2.13  16 2.16   8 2.48   1 2.60
  38  0.466  0.429  0.266-  19 2.13  15 2.16   7 2.48   2 2.60
  39  0.034  0.571  0.766-  18 2.13  14 2.16   6 2.48   3 2.60
  40  0.534  0.929  0.234-  17 2.13  13 2.16   5 2.48   4 2.60

  LATTYP: Found a simple orthorhombic cell.
 ALAT       =     7.5191890000
 B/A-ratio  =     1.2921941449
 C/A-ratio  =     1.3867691050

  Lattice vectors:

 A1 = (   7.5191890000,   0.0000000000,   0.0000000000)
 A2 = (   0.0000000000,   9.7162520000,   0.0000000000)
 A3 = (   0.0000000000,   0.0000000000,  10.4273790000)

Analysis of symmetry for initial positions (statically):
 Subroutine PRICEL returns:
 Original cell was already a primitive cell.

 Routine SETGRP: Setting up the symmetry group for a
 simple orthorhombic supercell.

 Subroutine GETGRP returns: Found  4 space group operations
 (whereof  1 operations were pure point group operations)
 out of a pool of  8 trial point group operations.

The static configuration has the point symmetry C_1 .
 The point group associated with its full space group is D_2 .

Analysis of symmetry for dynamics (positions and initial velocities):
 Subroutine PRICEL returns:
 Original cell was already a primitive cell.

[...]

The dynamic configuration has the point symmetry C_1 .
 The point group associated with its full space group is D_2 .

Analysis of structural, dynamic, and magnetic symmetry:
 Subroutine PRICEL returns:
 Original cell was already a primitive cell.

 Routine SETGRP: Setting up the symmetry group for a
 simple orthorhombic supercell.

 Subroutine GETGRP returns: Found  4 space group operations
 (whereof  1 operations were pure point group operations)
 out of a pool of  8 trial point group operations.

The magnetic configuration has the point symmetry C_1 .
 The point group associated with its full space group is D_2 .

 Subroutine INISYM returns: Found  4 space group operations
 (whereof  1 operations are pure point group operations),
 and found     1 'primitive' translations

                                     Primitive cell

  volume of cell :     761.8069

  direct lattice vectors                    reciprocal lattice vectors
     7.519189000  0.000000000  0.000000000     0.132993066  0.000000000  0.000000000
     0.000000000  9.716252000  0.000000000     0.000000000  0.102920344  0.000000000
     0.000000000  0.000000000 10.427379000     0.000000000  0.000000000  0.095901377

  length of vectors
     7.519189000  9.716252000 10.427379000     0.132993066  0.102920344  0.095901377

  position of ions in fractional coordinates (direct lattice)
     0.850185000  0.307382000  0.816212000
     0.350185000  0.192618000  0.183788000
     0.149815000  0.807382000  0.683788000
     0.649815000  0.692618000  0.316212000
     0.568698000  0.026280000  0.015039000
     0.068698000  0.473720000  0.984961000
     0.431302000  0.526280000  0.484961000
     0.931302000  0.973720000  0.515039000
     0.401918000  0.301123000  0.691024000
     0.901918000  0.198877000  0.308976000
     0.598082000  0.801123000  0.808976000
     0.098082000  0.698877000  0.191024000
     0.280567000  0.875063000  0.318431000
     0.780567000  0.624937000  0.681569000
     0.719433000  0.375063000  0.181569000
     0.219433000  0.124937000  0.818431000
     0.637535000  0.047995000  0.387710000
     0.137535000  0.452005000  0.612290000
     0.362465000  0.547995000  0.112290000
     0.862465000  0.952005000  0.887710000
     0.533535000  0.942671000  0.565642000
     0.033535000  0.557329000  0.434358000
     0.466465000  0.442671000  0.934358000
     0.966465000  0.057329000  0.065642000
     0.405625000  0.133862000  0.494860000
     0.905625000  0.366138000  0.505140000
     0.594375000  0.633862000  0.005140000
     0.094375000  0.866138000  0.994860000
     0.316720000  0.927556000  0.881174000
     0.816720000  0.572444000  0.118826000
     0.683280000  0.427556000  0.618826000
     0.183280000  0.072444000  0.381174000
     0.129046000  0.218717000  0.994585000
     0.629046000  0.281283000  0.005415000
     0.870954000  0.718717000  0.505415000
     0.370954000  0.781283000  0.494585000
     0.966252000  0.070983000  0.733888000
     0.466252000  0.429017000  0.266112000
     0.033748000  0.570983000  0.766112000
     0.533748000  0.929017000  0.233888000

  ion indices of the primitive-cell ions
   primitive index   ion index
                 1           1
                 2           2
                 3           3
                 4           4
                 5           5
                 6           6
                 7           7
                 8           8
                 9           9
                10          10
                11          11
                12          12
                13          13
                14          14
                15          15
                16          16
                17          17
                18          18
                19          19
                20          20
                21          21
                22          22
                23          23
                24          24
                25          25
                26          26
                27          27
                28          28
                29          29
                30          30
                31          31
                32          32
                33          33
                34          34
                35          35
                36          36
                37          37
                38          38
                39          39
                40          40

 KPOINTS: Fully automatic kpoint scheme

Automatic generation of k-mesh.
 generate k-points for:    4    3    3
Space group operators:
 irot       det(A)        alpha          n_x          n_y          n_z        tau_x        tau_y        tau_z
    1     1.000000     0.000000     1.000000     0.000000     0.000000     0.000000     0.000000     0.000000
[...]
     25      -7.3808      1.00000
     26      -7.3808      1.00000
     27      -7.3615      1.00000
     28      -7.3615      1.00000
     29      -4.0799      1.00000
     30      -4.0799      1.00000
     31      -4.0302      1.00000
     32      -4.0302      1.00000
     33      -3.8940      1.00000
     34      -3.8940      1.00000
     35      -3.8164      1.00000
     36      -3.8164      1.00000
     37      -3.7246      1.00000
     38      -3.7246      1.00000
     39      -3.6250      1.00000
     40      -3.6250      1.00000
     41      -1.2044      1.00000
     42      -1.2044      1.00000
     43      -1.0699      1.00000
     44      -1.0699      1.00000
     45      -0.7005      1.00000
     46      -0.7005      1.00000
     47      -0.6166      1.00000
     48      -0.6166      1.00000
     49      -0.4531      1.00000
     50      -0.4531      1.00000
     51      -0.3804      1.00000
     52      -0.3804      1.00000
     53       0.0245      1.00000
     54       0.0245      1.00000
     55       0.0942      1.00000
     56       0.0942      1.00000
     57       0.8840      1.00000
     58       0.8840      1.00000
     59       0.9693      1.00000
     60       0.9693      1.00000
[...]
    114       7.8823      0.00000
    115       8.0182      0.00000
    116       8.0182      0.00000
    117       8.3154      0.00000
    118       8.3154      0.00000
    119       8.4088      0.00000
    120       8.4088      0.00000
    121       8.6268      0.00000
    122       8.6268      0.00000
    123       8.7329      0.00000
    124       8.7329      0.00000
    125       9.0611      0.00000
    126       9.0612      0.00000
    127       9.1846      0.00000
    128       9.1854      0.00000

 soft charge-density along one line, spin component           1
         0         1         2         3         4         5         6         7         8         9
 total charge-density along one line

 soft charge-density along one line, spin component           2
         0         1         2         3         4         5         6         7         8         9
 total charge-density along one line

------------------------ aborting loop because EDIFF is reached ----------------------------------------

 total charge

# of ion       s       p       d       tot
    1        2.015   0.045   0.000   2.060
    2        2.015   0.045   0.000   2.060
    3        2.015   0.045   0.000   2.060
    4        2.015   0.045   0.000   2.060
    5        2.020   0.054   0.000   2.074
    6        2.020   0.054   0.000   2.074
    7        2.020   0.054   0.000   2.074
    8        2.020   0.054   0.000   2.074
    9        2.015   0.048   0.000   2.063
   10        2.015   0.048   0.000   2.063
   11        2.015   0.048   0.000   2.063
   12        2.015   0.048   0.000   2.063
   13        1.039   1.457   0.000   2.496
   14        1.039   1.457   0.000   2.496
   15        1.039   1.457   0.000   2.496
   16        1.039   1.457   0.000   2.496
   17        1.054   1.451   0.000   2.505
   18        1.054   1.451   0.000   2.505
   19        1.054   1.451   0.000   2.505
   20        1.054   1.451   0.000   2.505
   21        1.071   1.417   0.000   2.488
   22        1.071   1.417   0.000   2.488
   23        1.071   1.417   0.000   2.488
   24        1.071   1.417   0.000   2.488
   25        1.067   1.425   0.000   2.492
   26        1.067   1.425   0.000   2.492
   27        1.067   1.425   0.000   2.492
   28        1.067   1.425   0.000   2.492
   29        1.048   1.500   0.000   2.548
   30        1.048   1.500   0.000   2.548
   31        1.048   1.500   0.000   2.548
   32        1.048   1.500   0.000   2.548
   33        1.053   1.490   0.000   2.542
   34        1.053   1.490   0.000   2.542
   35        1.053   1.490   0.000   2.542
   36        1.053   1.490   0.000   2.542
   37        1.058   1.483   0.000   2.540
   38        1.058   1.483   0.000   2.540
   39        1.058   1.483   0.000   2.540
   40        1.058   1.483   0.000   2.540
tot         53.756  41.477   0.000  95.232

 magnetization (x)

[...]

  FORCE on cell =-STRESS in cart. coord.  units (eV):
  Direction    XX          YY          ZZ          XY          YZ          ZX
  Alpha Z   150.98617   150.98617   150.98617
  Ewald   -1823.54442 -1786.89777 -1823.69683     0.00000     0.00000    -0.00000
  Hartree   421.29527   455.82908   429.30704     0.00000    -0.00000    -0.00000
  E(xc)    -637.82648  -637.88672  -637.76233    -0.00000    -0.00000     0.00000
  Local   -1294.90862 -1372.22206 -1307.07176    -0.00000    -0.00000     0.00000
  n-local  1400.03062  1401.34697  1398.62946     0.02682    -0.05041    -0.04008
  augment   -77.64294   -78.19969   -77.87338    -0.00000    -0.00000    -0.00000
  Kinetic  1874.44274  1879.81999  1880.10934     0.29416    -0.03174     0.40279
  Fock        0.00000     0.00000     0.00000     0.00000     0.00000     0.00000
  Total      12.83234    12.77596    12.62772     0.00000     0.00000     0.00000
  in kB      26.98806    26.86948    26.55770     0.00000     0.00000     0.00000

 VOLUME and BASIS-vectors are now :
  energy-cutoff  :      520.00
  volume of cell :      761.81
      direct lattice vectors                 reciprocal lattice vectors
     7.519189000  0.000000000  0.000000000     0.132993066  0.000000000  0.000000000
     0.000000000  9.716252000  0.000000000     0.000000000  0.102920344  0.000000000
     0.000000000  0.000000000 10.427379000     0.000000000  0.000000000  0.095901377

  length of vectors
     7.519189000  9.716252000 10.427379000     0.132993066  0.102920344  0.095901377

 FORCES acting on ions
    electron-ion (+dipol)            ewald-force                    non-local-force                 convergence-correction
   0.993E+01 0.236E+01 0.478E+01   -.105E+02 -.297E+01 -.460E+01   0.536E+00 0.636E+00 -.183E+00   -.240E-03 -.152E-03 -.614E-04
   0.993E+01 -.236E+01 -.478E+01   -.105E+02 0.297E+01 0.460E+01   0.536E+00 -.636E+00 0.183E+00   -.240E-03 0.152E-03 0.614E-04
   -.993E+01 0.236E+01 -.478E+01   0.105E+02 -.297E+01 0.460E+01   -.536E+00 0.636E+00 0.183E+00   0.240E-03 -.152E-03 0.614E-04
   -.993E+01 -.236E+01 0.478E+01   0.105E+02 0.297E+01 -.460E+01   -.536E+00 -.636E+00 -.183E+00   0.240E-03 0.152E-03 -.614E-04
   -.349E+01 0.881E+01 0.519E+01   0.260E+01 -.862E+01 -.473E+01   0.914E+00 -.201E+00 -.476E+00   -.207E-04 0.129E-04 -.128E-03
   -.349E+01 -.881E+01 -.519E+01   0.260E+01 0.862E+01 0.473E+01   0.914E+00 0.201E+00 0.476E+00   -.207E-04 -.129E-04 0.128E-03
   0.349E+01 0.881E+01 -.519E+01   -.260E+01 -.862E+01 0.473E+01   -.914E+00 -.201E+00 0.476E+00   0.207E-04 0.129E-04 0.128E-03
   0.349E+01 -.881E+01 0.519E+01   -.260E+01 0.862E+01 -.473E+01   -.914E+00 0.201E+00 -.476E+00   0.207E-04 -.129E-04 -.128E-03
   -.105E+02 0.448E+00 -.309E+01   0.995E+01 -.670E+00 0.264E+01   0.599E+00 0.232E+00 0.460E+00   0.258E-03 -.279E-03 0.121E-03
   -.105E+02 -.448E+00 0.309E+01   0.995E+01 0.670E+00 -.264E+01   0.599E+00 -.232E+00 -.460E+00   0.258E-03 0.279E-03 -.121E-03
   0.105E+02 0.448E+00 0.309E+01   -.995E+01 -.670E+00 -.264E+01   -.599E+00 0.232E+00 -.460E+00   -.258E-03 -.279E-03 -.121E-03
   0.105E+02 -.448E+00 -.309E+01   -.995E+01 0.670E+00 0.264E+01   -.599E+00 -.232E+00 0.460E+00   -.258E-03 0.279E-03 0.121E-03
   0.578E+02 0.387E+02 0.486E+02   -.611E+02 -.417E+02 -.514E+02   0.298E+01 0.282E+01 0.254E+01   -.260E-03 -.604E-04 -.845E-04
   0.578E+02 -.387E+02 -.486E+02   -.611E+02 0.417E+02 0.514E+02   0.298E+01 -.282E+01 -.254E+01   -.260E-03 0.604E-04 0.845E-04
   -.578E+02 0.387E+02 -.486E+02   0.611E+02 -.417E+02 0.514E+02   -.298E+01 0.282E+01 -.254E+01   0.260E-03 -.604E-04 0.845E-04
   -.578E+02 -.387E+02 0.486E+02   0.611E+02 0.417E+02 -.514E+02   -.298E+01 -.282E+01 0.254E+01   0.260E-03 0.604E-04 -.845E-04
   -.788E+02 -.398E+02 0.140E+02   0.829E+02 0.414E+02 -.152E+02   -.368E+01 -.142E+01 0.120E+01   0.184E-03 -.154E-03 0.620E-04
   -.788E+02 0.398E+02 -.140E+02   0.829E+02 -.414E+02 0.152E+02   -.368E+01 0.142E+01 -.120E+01   0.184E-03 0.154E-03 -.620E-04
   0.788E+02 -.398E+02 -.140E+02   -.829E+02 0.414E+02 0.152E+02   0.368E+01 -.142E+01 -.120E+01   -.184E-03 -.154E-03 -.620E-04
   0.788E+02 0.398E+02 0.140E+02   -.829E+02 -.414E+02 -.152E+02   0.368E+01 0.142E+01 0.120E+01   -.184E-03 0.154E-03 0.620E-04
   -.412E+02 0.203E+01 -.882E+02   0.430E+02 -.300E+01 0.925E+02   -.150E+01 0.949E+00 -.386E+01   -.790E-04 0.182E-03 0.893E-05
   -.412E+02 -.203E+01 0.882E+02   0.430E+02 0.300E+01 -.925E+02   -.150E+01 -.949E+00 0.386E+01   -.790E-04 -.182E-03 -.893E-05
   0.412E+02 0.203E+01 0.882E+02   -.430E+02 -.300E+01 -.925E+02   0.150E+01 0.949E+00 0.386E+01   0.790E-04 0.182E-03 -.893E-05
   0.412E+02 -.203E+01 -.882E+02   -.430E+02 0.300E+01 0.925E+02   0.150E+01 -.949E+00 -.386E+01   0.790E-04 -.182E-03 0.893E-05
   0.836E+01 -.844E+02 -.418E+02   -.864E+01 0.889E+02 0.449E+02   0.262E+00 -.405E+01 -.284E+01   0.165E-03 -.790E-04 0.235E-03
   0.836E+01 0.844E+02 0.418E+02   -.864E+01 -.889E+02 -.449E+02   0.262E+00 0.405E+01 0.284E+01   0.165E-03 0.790E-04 -.235E-03
   -.836E+01 -.844E+02 0.418E+02   0.864E+01 0.889E+02 -.449E+02   -.262E+00 -.405E+01 0.284E+01   -.165E-03 -.790E-04 -.235E-03
   -.836E+01 0.844E+02 -.418E+02   0.864E+01 -.889E+02 0.449E+02   -.262E+00 0.405E+01 -.284E+01   -.165E-03 0.790E-04 0.235E-03
   -.691E+02 0.457E+02 0.113E+02   0.721E+02 -.467E+02 -.123E+02   -.257E+01 0.749E+00 0.983E+00   0.232E-03 -.941E-04 -.198E-03
   -.691E+02 -.457E+02 -.113E+02   0.721E+02 0.467E+02 0.123E+02   -.257E+01 -.749E+00 -.983E+00   0.232E-03 0.941E-04 0.198E-03
   0.691E+02 0.457E+02 -.113E+02   -.721E+02 -.467E+02 0.123E+02   0.257E+01 0.749E+00 -.983E+00   -.232E-03 -.941E-04 0.198E-03
   0.691E+02 -.457E+02 0.113E+02   -.721E+02 0.467E+02 -.123E+02   0.257E+01 -.749E+00 0.983E+00   -.232E-03 0.941E-04 -.198E-03
   -.125E+02 -.634E+02 -.362E+02   0.134E+02 0.661E+02 0.379E+02   -.837E+00 -.225E+01 -.153E+01   -.819E-04 0.917E-05 0.223E-03
   -.125E+02 0.634E+02 0.362E+02   0.134E+02 -.661E+02 -.379E+02   -.837E+00 0.225E+01 0.153E+01   -.819E-04 -.917E-05 -.223E-03
   0.125E+02 -.634E+02 0.362E+02   -.134E+02 0.661E+02 -.379E+02   0.837E+00 -.225E+01 0.153E+01   0.819E-04 0.917E-05 -.223E-03
   0.125E+02 0.634E+02 -.362E+02   -.134E+02 -.661E+02 0.379E+02   0.837E+00 0.225E+01 -.153E+01   0.819E-04 -.917E-05 0.223E-03
   0.423E+02 -.201E+02 0.741E+02   -.439E+02 0.214E+02 -.771E+02   0.137E+01 -.114E+01 0.257E+01   -.209E-03 -.749E-04 0.114E-03
   0.423E+02 0.201E+02 -.741E+02   -.439E+02 -.214E+02 0.771E+02   0.137E+01 0.114E+01 -.257E+01   -.209E-03 0.749E-04 -.114E-03
   -.423E+02 -.201E+02 -.741E+02   0.439E+02 0.214E+02 0.771E+02   -.137E+01 -.114E+01 -.257E+01   0.209E-03 -.749E-04 -.114E-03
   -.423E+02 0.201E+02 0.741E+02   0.439E+02 -.214E+02 -.771E+02   -.137E+01 0.114E+01 0.257E+01   0.209E-03 0.749E-04 0.114E-03
   0.119E-05 0.480E-06 -.830E-08   0.142E-13 -.142E-13 0.142E-13   0.133E-14 -.133E-14 0.444E-15   -.523E-13 0.410E-13 -.529E-13

 POSITION                                       TOTAL-FORCE (eV/Angst)
      6.39270      2.98660      8.51095         0.007721      0.019016     -0.004045
      2.63311      1.87153      1.91643         0.007721     -0.019016      0.004045
      1.12649      7.84473      7.13012        -0.007721      0.019016      0.004045
      4.88608      6.72965      3.29726        -0.007721     -0.019016     -0.004045
      4.27615      0.25534      0.15682         0.022718     -0.014025     -0.023321
      0.51655      4.60278     10.27056         0.022718      0.014025      0.023321
      3.24304      5.11347      5.05687        -0.022718     -0.014025      0.023321
      7.00264      9.46091      5.37051        -0.022718      0.014025     -0.023321
      3.02210      2.92579      7.20557         0.016129      0.010028      0.003620
      6.78169      1.93234      3.22181         0.016129     -0.010028     -0.003620
      4.49709      7.78391      8.43550        -0.016129      0.010028     -0.003620
      0.73750      6.79047      1.99188        -0.016129     -0.010028      0.003620
      2.10964      8.50233      3.32040        -0.281549     -0.230692     -0.248212
      5.86923      6.07205      7.10698        -0.281549      0.230692      0.248212
      5.40955      3.64421      1.89329         0.281549     -0.230692      0.248212
      1.64996      1.21392      8.53409         0.281549      0.230692     -0.248212
      4.79375      0.46633      4.04280         0.410949      0.216620     -0.024602
      1.03415      4.39179      6.38458         0.410949     -0.216620      0.024602
      2.72544      5.32446      1.17089        -0.410949      0.216620      0.024602
      6.48504      9.24992      9.25649        -0.410949     -0.216620     -0.024602
      4.01175      9.15923      5.89816         0.267052     -0.023623      0.442527
      0.25216      5.41515      4.52922         0.267052      0.023623     -0.442527
      3.50744      4.30110      9.74290        -0.267052     -0.023623     -0.442527
      7.26703      0.55702      0.68447        -0.267052      0.023623      0.442527
      3.04997      1.30064      5.16009        -0.022065      0.423306      0.242001
      6.80957      3.55749      5.26729        -0.022065     -0.423306     -0.242001
      4.46922      6.15876      0.05360         0.022065      0.423306     -0.242001
      0.70962      8.41562     10.37378         0.022065     -0.423306      0.242001
      2.38148      9.01237      9.18834         0.391229     -0.200781     -0.091225
      6.14107      5.56201      1.23904         0.391229      0.200781      0.091225
      5.13771      4.15424      6.45273        -0.391229     -0.200781      0.091225
      1.37812      0.70388      3.97465        -0.391229      0.200781     -0.091225
      0.97032      2.12511     10.37091         0.109121      0.431155      0.149324
      4.72992      2.73302      0.05646         0.109121     -0.431155     -0.149324
      6.54887      6.98324      5.27015        -0.109121      0.431155     -0.149324
      2.78927      7.59114      5.15723        -0.109121     -0.431155      0.149324
      7.26543      0.68969      7.65253        -0.162560      0.124484     -0.444034
      3.50584      4.16844      2.77485        -0.162560     -0.124484      0.444034
      0.25376      5.54781      7.98854         0.162560      0.124484      0.444034
      4.01335      9.02656      2.43884         0.162560     -0.124484     -0.444034
    total drift:                                0.000001      0.000000     -0.000000

  FREE ENERGIE OF THE ION-ELECTRON SYSTEM (eV)
  free  energy   TOTEN  =      -188.70672774 eV

  energy  without entropy=     -188.70672774  energy(sigma->0) =     -188.70672774

 total charge

[...]

 magnetization (x)

# of ion       s       p       d       tot
    1        0.000   0.000   0.000   0.000
    2        0.000   0.000   0.000   0.000
    3        0.000   0.000   0.000   0.000
    4        0.000   0.000   0.000   0.000
    5        0.000   0.000   0.000   0.000
    6        0.000   0.000   0.000   0.000
    7        0.000   0.000   0.000   0.000
    8        0.000   0.000   0.000   0.000
    9        0.000   0.000   0.000   0.000
   10        0.000   0.000   0.000   0.000
   11        0.000   0.000   0.000   0.000
   12        0.000   0.000   0.000   0.000
   13        0.000   0.000   0.000   0.000
   14        0.000   0.000   0.000   0.000
   15        0.000   0.000   0.000   0.000
   16        0.000   0.000   0.000   0.000
   17        0.000   0.000   0.000   0.000
   18        0.000   0.000   0.000   0.000
   19        0.000   0.000   0.000   0.000
   20        0.000   0.000   0.000   0.000
   21        0.000   0.000   0.000   0.000
   22        0.000   0.000   0.000   0.000
   23        0.000   0.000   0.000   0.000
   24        0.000   0.000   0.000   0.000
   25        0.000   0.000   0.000   0.000
   26        0.000   0.000   0.000   0.000
   27        0.000   0.000   0.000   0.000
   28        0.000   0.000   0.000   0.000
   29        0.000  -0.000   0.000  -0.000
   30        0.000  -0.000   0.000  -0.000
   31        0.000  -0.000   0.000  -0.000
   32        0.000  -0.000   0.000  -0.000
   33        0.000   0.000   0.000   0.000
   34        0.000   0.000   0.000   0.000
   35        0.000   0.000   0.000   0.000
   36        0.000   0.000   0.000   0.000
   37        0.000   0.000   0.000   0.000
   38        0.000   0.000   0.000   0.000
   39        0.000   0.000   0.000   0.000
   40        0.000   0.000   0.000   0.000
tot          0.000   0.000   0.000   0.000

 BZINTS: Fermi energy:    5.717846;  176.000000 electrons
         Band energy:-0.124969E+04;  BLOECHL correction:    0.000000