 vasp.6.1.2 22Jul20 (build Apr 14 2021 21:39:43) complex

 executed on             LinuxIFC date 2021.07.04  01:06:13

 INCAR:
 POTCAR:    PAW_PBE Li_sv 10Sep2004
 POTCAR:    PAW_PBE P 06Sep2000
 POTCAR:    PAW_PBE N 08Apr2002
 POTCAR:    PAW_PBE Li_sv 10Sep2004
   VRHFIN =Li: 1s2s2p

   TITEL  = PAW_PBE Li_sv 10Sep2004
   POMASS =    7.010; ZVAL   =    3.000    mass and valenz
   ENMAX  =  499.034; ENMIN  =  374.276 eV

 POTCAR:    PAW_PBE P 06Sep2000
   VRHFIN =P : s2p3

   TITEL  = PAW_PBE P 06Sep2000
   POMASS =   30.974; ZVAL   =    5.000    mass and valenz
   ENMAX  =  255.040; ENMIN  =  191.280 eV

 POTCAR:    PAW_PBE N 08Apr2002
   VRHFIN =N: s2p3

   TITEL  = PAW_PBE N 08Apr2002
   POMASS =   14.001; ZVAL   =    5.000    mass and valenz
   ENMAX  =  400.000; ENMIN  =  300.000 eV

 Optimization of the real space projectors (new method)

 maximal supplied QI-value         = 22.11
 optimisation between [QCUT,QGAM] = [ 11.50, 23.22] = [ 37.02,150.92] Ry
 Optimized for a Real-space Cutoff    1.08 Angstroem

   l    n(q)    QCUT    max X(q) W(low)/X(q) W(high)/X(q)  e(spline)
   0      7    11.497    10.506    0.36E-04    0.62E-04    0.14E-07
   0      7    11.497     8.367    0.65E-04    0.14E-03    0.28E-07
   1      7    11.497     8.983    0.21E-03    0.43E-03    0.90E-07
 Optimization of the real space projectors (new method)

[...]

   l    n(q)    QCUT    max X(q) W(low)/X(q) W(high)/X(q)  e(spline)
   0      8    11.508   160.924    0.96E-04    0.17E-03    0.52E-07
   0      8    11.508   130.086    0.95E-04    0.17E-03    0.51E-07
   1      8    11.508    74.434    0.16E-03    0.74E-04    0.91E-07
   1      8    11.508    49.120    0.16E-03    0.71E-04    0.89E-07
 Optimization of the real space projectors (new method)

 maximal supplied QI-value         = 25.13
 optimisation between [QCUT,QGAM] = [ 11.56, 23.12] = [ 37.43,149.72] Ry
 Optimized for a Real-space Cutoff    1.40 Angstroem

   l    n(q)    QCUT    max X(q) W(low)/X(q) W(high)/X(q)  e(spline)
   0     10    11.561    79.467    0.46E-04    0.78E-04    0.61E-06
   0     10    11.561    66.151    0.45E-04    0.77E-04    0.61E-06
   1      9    11.561    18.886    0.22E-03    0.13E-03    0.12E-05
   1      9    11.561    13.488    0.23E-03    0.13E-03    0.12E-05
  PAW_PBE Li_sv 10Sep2004               :
  PAW_PBE P 06Sep2000                   :
  PAW_PBE N 08Apr2002                   :

 POSCAR: Li61 P7 N32
  positions in direct lattice
  velocities in cartesian coordinates
 exchange correlation table for  LEXCH =        8
   RHO(1)=    0.500       N(1)  =     2000
   RHO(2)=  100.500       N(2)  =     4000

 ion  position               nearest neighbor table
   1  0.499  0.003  0.493-  94 2.02  89 2.04  90 2.04  93 2.05  52 2.38   8 2.40  53 2.43  67 2.44
                            68 2.46   7 2.46
   2  0.015  0.500  0.997-  84 1.95  86 1.97  83 1.99  85 2.02  50 2.27  51 2.32  16 2.33  64 2.34
                            63 2.35  17 2.44
   3  0.505  0.005  0.994-  88 1.94  87 1.96  99 1.99 100 2.01  12 2.28  11 2.28  15 2.32  68 2.33
                            67 2.35  14 2.38
   4  0.997  0.002  0.496-  79 1.97  81 1.98  80 1.98  82 2.00  57 2.28  56 2.30   7 2.34  66 2.36
                            65 2.37   8 2.42
   5  0.512  0.516  0.979-  92 1.95  96 2.01  95 2.10  91 2.11  60 2.11  55 2.25  64 2.44  54 2.45
                            15 2.46  63 2.50  14 2.55
   6  0.985  0.501  0.494-  98 2.01  97 2.04  77 2.07  78 2.11  10 2.38  17 2.43  66 2.44  16 2.45
                            65 2.48
   7  0.754  0.981  0.478-  94 2.05  82 2.08  30 2.31   4 2.34  43 2.37  23 2.40   1 2.46
   8  0.248  0.009  0.502-  79 2.11  38 2.38  28 2.39  29 2.40   1 2.40   4 2.42  39 2.46
   9  0.711  0.449  0.519-  70 1.92  69 2.16  33 2.25  30 2.30  31 2.36  13 2.36  32 2.47  59 2.49

  10  0.232  0.513  0.509-  78 2.12  75 2.14  76 2.15  58 2.24  35 2.35   6 2.38  13 2.41  29 2.42
                            28 2.47
  11  0.267  0.003  0.004-  74 2.04  73 2.08  87 2.10   3 2.28  41 2.31  40 2.32  39 2.36  62 2.51
                            38 2.52
  12  0.743  0.995  0.990-  72 2.07  71 2.08 100 2.14   3 2.28  42 2.29  43 2.33  45 2.39  44 2.43
                            62 2.53
  13  0.480  0.530  0.549-  69 1.91  76 1.92  58 1.93  75 2.06  55 2.08  53 2.17  59 2.24   9 2.36
                            10 2.41
  14  0.511  0.251  0.976-  88 2.12  96 2.13   3 2.38  40 2.39  45 2.47  48 2.48  60 2.50  37 2.53
                             5 2.55
  15  0.529  0.767  0.022-  87 2.04 100 2.17  95 2.18   3 2.32  41 2.45   5 2.46  44 2.55  49 2.55
                            61 2.57
  16  0.002  0.522  0.239-  98 2.05  85 2.09  83 2.12  32 2.18  34 2.19   2 2.33   6 2.45  26 2.48
                            47 2.53  21 2.60
  17  0.031  0.494  0.743-  86 2.09  78 2.12  33 2.37   6 2.43  27 2.43   2 2.44  35 2.47  46 2.56

  18  0.216  0.187  0.247-  74 1.95  89 2.06  38 2.33  34 2.35  28 2.49  26 2.50  48 2.53
  19  0.204  0.753  0.778-  73 2.02  78 2.17  39 2.49  49 2.50  27 2.50  29 2.50  41 2.52
  20  0.243  0.266  0.728-  76 2.00  86 2.15  79 2.18  28 2.23  35 2.25  37 2.27  46 2.42  40 2.46
                            39 2.54
  21  0.204  0.688  0.304-  75 1.94  80 2.06  85 2.08  54 2.24  29 2.29  47 2.31  34 2.55  36 2.57
                            38 2.58  16 2.60  65 2.74
  22  0.720  0.234  0.292-  70 1.87  81 2.08  99 2.17  43 2.30  30 2.36  48 2.46  26 2.46  45 2.51
                            60 2.54  32 2.55
  23  0.676  0.826  0.655-  69 2.02 100 2.05  31 2.07  42 2.11  61 2.11  82 2.13  53 2.26   7 2.40
                            49 2.47  68 2.48
  24  0.749  0.235  0.787-  96 2.05  42 2.34  45 2.36  46 2.38  30 2.41  33 2.48
  25  0.742  0.758  0.265-  94 2.04  98 2.18  44 2.36  43 2.43  47 2.43  59 2.47  32 2.60
  26  0.968  0.267  0.236-  77 2.02  83 2.02  81 2.07  50 2.36  56 2.41  22 2.46  16 2.48  18 2.50
                            66 2.50
  27  0.946  0.733  0.751-  82 2.02  84 2.07  78 2.08  17 2.43  51 2.49  19 2.50  65 2.51  57 2.53
                            61 2.59
  28  0.252  0.257  0.495-  76 1.96  79 2.02  77 2.04  20 2.23   8 2.39  52 2.44  66 2.46  10 2.47
                            58 2.48  18 2.49
  29  0.265  0.762  0.524-  78 2.11  80 2.11  75 2.12  90 2.19  53 2.27  21 2.29   8 2.40  10 2.42
                            19 2.50  65 2.53
  30  0.746  0.214  0.537-  81 2.02  97 2.03  93 2.05   9 2.30   7 2.31  22 2.36  52 2.38  24 2.41
                            66 2.45
  31  0.776  0.685  0.525-  69 1.88  98 1.92  82 2.06  23 2.07  65 2.31   9 2.36
  32  0.780  0.491  0.275-  83 2.00  70 2.11  16 2.18  59 2.23  60 2.27   9 2.47  22 2.55  63 2.59
                            25 2.60
  33  0.784  0.485  0.740-  84 2.06  97 2.12  96 2.18   9 2.25  61 2.27  17 2.37  55 2.38  24 2.48
                            63 2.54
  34  0.212  0.431  0.242-  77 1.97  85 2.06  91 2.10  16 2.19  54 2.25  18 2.35  58 2.40  64 2.51
                            21 2.55
  35  0.288  0.494  0.747-  76 1.94  92 1.98  86 2.05  20 2.25  10 2.35  64 2.38  55 2.39  17 2.47

  36  0.454  0.783  0.291-  75 1.91  87 1.92  94 1.97  53 2.24  67 2.27  54 2.27  59 2.33  38 2.56
                            21 2.57
  37  0.478  0.237  0.715-  76 1.93  88 1.96  93 2.03  52 2.22  20 2.27  55 2.36  68 2.36  14 2.53

  38  0.247  0.948  0.261-  87 1.98  80 2.08  89 2.11  18 2.33   8 2.38  56 2.44  11 2.52  67 2.53
                            36 2.56  21 2.58
  39  0.250  0.005  0.758-  88 1.97  90 2.03  73 2.15  57 2.32  11 2.36  68 2.44   8 2.46  19 2.49
                            20 2.54
  40  0.263  0.242  0.983-  86 2.03  91 2.06  11 2.32  14 2.39  50 2.42  20 2.46  64 2.48
  41  0.273  0.765  0.032-  92 2.04  87 2.07  85 2.12  11 2.31  51 2.39  15 2.45  19 2.52  54 2.54
                            64 2.59
  42  0.775  0.996  0.753-  93 2.04  72 2.08  23 2.11 100 2.14  57 2.26  12 2.29  24 2.34  68 2.61

  43  0.762  0.006  0.232-  99 2.03  94 2.03  71 2.10  22 2.30  12 2.33  56 2.33   7 2.37  25 2.43
                            67 2.49
  44  0.794  0.751  0.025-  71 1.96  84 1.99  95 2.00  51 2.26  61 2.26  25 2.36  12 2.43  63 2.45
                            15 2.55
  45  0.762  0.238  0.033-  83 2.03  96 2.11  24 2.36  12 2.39  50 2.44  14 2.47  22 2.51  63 2.53

  46  0.995  0.231  0.749-  79 1.97  97 2.00  72 2.07  50 2.37  57 2.37  24 2.38  20 2.42  66 2.44
                            17 2.56
  47  0.993  0.784  0.242-  98 1.96  71 1.98  80 2.01  56 2.28  21 2.31  51 2.41  25 2.43  65 2.45
                            16 2.53
  48  0.472  0.250  0.233-  89 1.98  99 2.03  60 2.08  58 2.32  67 2.37  52 2.44  22 2.46  14 2.48
                            18 2.53
  49  0.464  0.732  0.766-  92 2.04  90 2.07  61 2.29  53 2.42  23 2.47  19 2.50  15 2.55  68 2.58
                            55 2.60
  50  0.012  0.264  0.993-  74 2.03  72 2.12  83 2.17  86 2.19   2 2.27  26 2.36  46 2.37  40 2.42
                            45 2.44  62 2.51
  51  0.028  0.740  0.997-  73 2.00  44 2.26   2 2.32  41 2.39  47 2.41  27 2.49  62 2.55
  52  0.506  0.250  0.485-  70 2.03  76 2.08  58 2.13  37 2.22   1 2.38  30 2.38  28 2.44  48 2.44

  53  0.501  0.752  0.517-  75 2.08  90 2.12  69 2.12  13 2.17  36 2.24  23 2.26  29 2.27  49 2.42
                             1 2.43  59 2.46
  54  0.380  0.583  0.189-  75 1.95  91 2.03  21 2.24  34 2.25  36 2.27  64 2.34  59 2.39   5 2.45
                            58 2.48  60 2.52  41 2.54
  55  0.537  0.472  0.749-  69 2.01  13 2.08  96 2.14   5 2.25  37 2.36  33 2.38  35 2.39  49 2.60

  56  0.003  0.020  0.257-  74 2.01  81 2.08  71 2.09  47 2.28   4 2.30  43 2.33  26 2.41  38 2.44
                            62 2.51
  57  0.010  0.986  0.733-  73 2.03  72 2.15  42 2.26   4 2.28  39 2.32  46 2.37  62 2.53  27 2.53

  58  0.414  0.426  0.389-  13 1.93  70 1.94  75 1.98  52 2.13  59 2.19  10 2.24  48 2.32  34 2.40
                            54 2.48  28 2.48
  59  0.575  0.579  0.342-  70 1.94  75 1.99  58 2.19  32 2.23  13 2.24  60 2.30  36 2.33  54 2.39
                            53 2.46  25 2.47   9 2.49
  60  0.584  0.419  0.162-  70 1.95  95 2.06  48 2.08   5 2.11  32 2.27  59 2.30  63 2.47  14 2.50
                            54 2.52  22 2.54
  61  0.691  0.686  0.823-  69 1.94  84 2.03  23 2.11 100 2.12  44 2.26  33 2.27  49 2.29  15 2.57
                            27 2.59  63 2.64
  62  0.006  0.004  0.996-  74 1.69  73 1.69  71 1.69  72 1.70  11 2.51  56 2.51  50 2.51  57 2.53
                            12 2.53  51 2.55
  63  0.771  0.499  0.005-  83 1.67  96 1.69  84 1.69  95 1.72   2 2.35  44 2.45  60 2.47   5 2.50
                            45 2.53  33 2.54  32 2.59  61 2.64
  64  0.259  0.500  0.994-  86 1.68  92 1.68  85 1.71  91 1.72   2 2.34  54 2.34  35 2.38   5 2.44
                            40 2.48  34 2.51  41 2.59
  65  0.003  0.757  0.496-  78 1.69  80 1.69  82 1.71  98 1.72  31 2.31   4 2.37  47 2.45   6 2.48
                            27 2.51  29 2.53  21 2.74
  66  0.996  0.247  0.495-  77 1.70  79 1.70  81 1.71  97 1.71   4 2.36  46 2.44   6 2.44  30 2.45
                            28 2.46  26 2.50
[...]
   0.130E+02 0.215E+02 0.148E+02   -.121E+02 -.222E+02 -.157E+02   -.911E+00 0.698E+00 0.834E+00   0.648E-03 0.887E-04 -.323E-03
   -.373E+02 -.140E+02 -.918E+01   0.365E+02 0.128E+02 0.746E+01   0.815E+00 0.127E+01 0.170E+01   0.876E-03 0.191E-03 0.156E-02
   0.279E+02 -.986E+01 0.161E+02   -.274E+02 0.932E+01 -.151E+02   -.510E+00 0.545E+00 -.992E+00   -.629E-04 0.111E-02 0.254E-02
   -.232E+02 0.162E+01 0.234E+02   0.226E+02 -.195E+01 -.230E+02   0.605E+00 0.319E+00 -.376E+00   0.392E-03 0.589E-03 0.740E-03
   0.295E+02 0.824E+01 -.194E+02   -.296E+02 -.657E+01 0.174E+02   0.110E+00 -.165E+01 0.198E+01   -.223E-03 -.102E-02 -.342E-03
   -.281E+01 0.141E-01 0.211E+02   0.326E+01 -.741E+00 -.216E+02   -.449E+00 0.723E+00 0.483E+00   -.121E-03 0.131E-02 0.886E-03
   -.611E+01 -.135E+02 -.326E+02   0.484E+01 0.115E+02 0.326E+02   0.126E+01 0.195E+01 0.361E-01   -.610E-03 -.426E-03 0.981E-03
   0.110E+01 0.310E+02 0.702E+01   -.130E+01 -.290E+02 -.714E+01   0.187E+00 -.196E+01 0.117E+00   0.240E-03 -.336E-03 -.144E-02
   0.127E+02 0.369E+02 -.450E+01   -.116E+02 -.347E+02 0.395E+01   -.117E+01 -.217E+01 0.540E+00   -.135E-02 -.217E-03 0.106E-02
   0.329E+01 -.142E+01 0.317E+02   -.321E+01 0.851E+00 -.298E+02   -.900E-01 0.574E+00 -.189E+01   -.158E-02 -.566E-03 0.240E-02
   0.245E+01 0.878E+01 -.275E+02   -.264E+01 -.823E+01 0.261E+02   0.181E+00 -.544E+00 0.135E+01   -.451E-03 -.103E-02 -.955E-03
   0.143E+01 -.290E+02 -.292E+01   -.698E+00 0.279E+02 0.394E+01   -.714E+00 0.108E+01 -.102E+01   -.286E-03 0.165E-03 -.402E-03
   -.650E+01 -.285E+02 0.166E+01   0.556E+01 0.269E+02 -.232E+01   0.924E+00 0.160E+01 0.657E+00   0.803E-03 0.836E-03 0.168E-03
   -.296E+01 0.810E+01 -.327E+02   0.355E+01 -.685E+01 0.318E+02   -.580E+00 -.125E+01 0.898E+00   -.845E-03 0.441E-04 -.197E-03
   -.890E+00 -.131E+00 0.314E+02   0.617E+00 0.648E+00 -.297E+02   0.270E+00 -.510E+00 -.169E+01   -.732E-04 -.117E-02 -.282E-03
   -.346E+02 -.618E+01 -.137E+02   0.325E+02 0.554E+01 0.125E+02   0.211E+01 0.650E+00 0.118E+01   0.543E-03 -.526E-03 0.624E-03
   0.328E+02 -.267E+01 0.500E+01   -.314E+02 0.158E+01 -.412E+01   -.134E+01 0.108E+01 -.867E+00   -.139E-02 -.720E-03 -.397E-04
   0.416E+01 0.241E+02 -.180E+02   -.298E+01 -.232E+02 0.166E+02   -.118E+01 -.911E+00 0.139E+01   -.761E-03 0.131E-03 0.663E-03
   -.221E+01 0.267E+02 0.212E+02   0.160E+01 -.263E+02 -.209E+02   0.618E+00 -.435E+00 -.314E+00   0.372E-03 0.107E-02 -.283E-03
   0.126E+02 -.411E+01 -.120E+02   -.120E+02 0.425E+01 0.112E+02   -.608E+00 -.141E+00 0.857E+00   -.288E-02 0.129E-02 0.134E-02
   0.282E+01 -.598E+01 0.126E+02   -.332E+01 0.640E+01 -.115E+02   0.500E+00 -.420E+00 -.108E+01   -.963E-03 -.135E-02 -.170E-02
   -.143E+02 -.839E+01 0.200E+02   0.137E+02 0.809E+01 -.174E+02   0.529E+00 0.293E+00 -.260E+01   0.141E-02 0.469E-03 -.720E-03
   0.643E+01 -.597E+01 -.760E+01   -.585E+01 0.538E+01 0.609E+01   -.584E+00 0.588E+00 0.152E+01   0.428E-03 0.126E-02 -.172E-02
   -.223E+00 -.235E+02 -.260E+02   0.308E+01 0.226E+02 0.248E+02   -.286E+01 0.951E+00 0.111E+01   -.786E-03 -.558E-03 -.811E-03
   -.298E+01 0.964E+01 0.229E+02   0.136E+01 -.857E+01 -.217E+02   0.163E+01 -.106E+01 -.117E+01   -.102E-02 0.374E-03 0.248E-03
   -.155E+02 -.587E+01 0.245E+01   0.146E+02 0.551E+01 -.161E+01   0.894E+00 0.352E+00 -.827E+00   0.864E-03 -.139E-02 -.169E-02
   0.133E+02 -.882E+01 0.334E+01   -.124E+02 0.886E+01 -.362E+01   -.894E+00 -.423E-01 0.269E+00   -.735E-03 -.770E-03 0.395E-03
   0.125E+02 0.335E+02 0.283E+02   -.115E+02 -.308E+02 -.263E+02   -.938E+00 -.272E+01 -.195E+01   0.412E-03 -.153E-02 0.871E-04
   0.122E+01 -.324E+02 -.391E+02   -.212E+00 0.298E+02 0.358E+02   -.102E+01 0.260E+01 0.326E+01   0.384E-03 0.179E-02 0.775E-03
   0.329E+01 0.668E+01 0.176E+02   -.143E+00 -.634E+01 -.166E+02   -.315E+01 -.335E+00 -.100E+01   -.592E-03 -.296E-03 0.166E-03
[...]
   0.451E+02 0.520E+02 0.538E+02   -.536E+02 -.595E+02 -.618E+02   0.851E+01 0.750E+01 0.799E+01   0.576E-03 0.101E-02 -.100E-02
   -.333E+02 0.591E+02 -.649E+02   0.412E+02 -.670E+02 0.740E+02   -.783E+01 0.796E+01 -.909E+01   -.834E-03 0.545E-03 0.136E-02
   -.541E+02 0.629E+02 -.480E+02   0.624E+02 -.719E+02 0.546E+02   -.830E+01 0.907E+01 -.655E+01   0.121E-02 0.315E-02 0.133E-02
   0.375E+02 0.775E+02 0.464E+02   -.458E+02 -.861E+02 -.542E+02   0.821E+01 0.857E+01 0.780E+01   0.124E-02 -.155E-02 0.371E-03
   -.343E+02 -.281E+02 0.784E+02   0.408E+02 0.362E+02 -.871E+02   -.655E+01 -.808E+01 0.866E+01   0.931E-04 -.210E-02 -.141E-03
   0.662E+02 -.304E+02 -.697E+02   -.739E+02 0.376E+02 0.801E+02   0.773E+01 -.721E+01 -.104E+02   -.145E-02 -.214E-02 -.764E-03
   0.408E+02 -.524E+02 -.653E+02   -.483E+02 0.611E+02 0.724E+02   0.750E+01 -.865E+01 -.702E+01   -.110E-02 0.123E-02 0.147E-02
   -.474E+02 -.623E+02 0.593E+02   0.554E+02 0.715E+02 -.671E+02   -.804E+01 -.924E+01 0.779E+01   0.139E-02 0.236E-02 -.171E-02
   -.572E+02 0.419E+02 -.791E+02   0.647E+02 -.493E+02 0.878E+02   -.750E+01 0.741E+01 -.871E+01   -.196E-02 0.692E-03 0.339E-02
   0.732E+02 0.413E+02 0.696E+02   -.809E+02 -.491E+02 -.782E+02   0.765E+01 0.777E+01 0.866E+01   -.664E-03 -.805E-03 0.139E-02
   -.572E+02 0.463E+02 -.475E+02   0.652E+02 -.536E+02 0.555E+02   -.802E+01 0.732E+01 -.800E+01   0.724E-03 -.276E-03 0.372E-02
   0.527E+02 0.535E+02 0.429E+02   -.620E+02 -.598E+02 -.500E+02   0.935E+01 0.636E+01 0.715E+01   0.101E-02 -.236E-02 -.186E-02
   0.448E+02 -.512E+02 -.508E+02   -.525E+02 0.591E+02 0.594E+02   0.762E+01 -.791E+01 -.853E+01   -.116E-02 0.178E-02 0.293E-02
   -.554E+02 -.464E+02 0.470E+02   0.630E+02 0.538E+02 -.550E+02   -.760E+01 -.738E+01 0.806E+01   0.277E-03 0.265E-02 -.162E-02
   0.674E+01 0.216E+01 -.182E+01   0.284E-13 0.568E-13 -.711E-14   -.674E+01 -.215E+01 0.183E+01   -.125E-02 -.737E-02 0.440E-02

 POSITION                                       TOTAL-FORCE (eV/Angst)
      4.74020      4.80090      0.02259        -0.000237      0.002808      0.005770
      9.53783      0.18297      4.77214         0.003465      0.003395     -0.002901
      9.53596      4.87057      0.01437        -0.006347      0.000899      0.000091
      4.77755      9.58112      0.02921        -0.001818      0.000551      0.001491
      9.37240      4.95598      4.94111         0.003857      0.001095     -0.004390
      4.73073      9.48600      4.83952        -0.000648     -0.004884      0.000870
      4.54229      7.28643      9.47072        -0.002859      0.006173     -0.006485
      4.81204      2.39426      0.07362        -0.005685     -0.000127      0.000665
      4.96949      6.84719      4.33318         0.000225     -0.014251      0.002024
      4.86258      2.25687      4.93306        -0.000179     -0.001938     -0.005806
      0.04727      2.56721      0.03613         0.002412     -0.001752     -0.002595
      9.45682      7.18489      9.57439         0.003118      0.003700      0.001843
      5.24174      4.63468      5.11145         0.007668     -0.010800      0.012051
      9.35623      4.93850      2.38822        -0.005110      0.001284      0.001109
      0.17962      5.10407      7.42315         0.000436     -0.003228     -0.004272
      2.26718      0.03883      5.02969        -0.004225     -0.004230      0.018627
      7.09851      0.32508      4.73025         0.004302      0.006857      0.003426
      2.36312      2.08357      1.80271         0.001724     -0.009873     -0.008605
      7.42449      2.00375      7.23292         0.001078     -0.007609      0.003613
      6.97482      2.35894      2.54298        -0.003474      0.005432      0.009419
      2.88625      1.99401      6.63636        -0.000830      0.002919     -0.001625
      2.80673      6.92537      2.27207         0.001349     -0.004465     -0.009656
      6.25443      6.53237      7.96360         0.001303     -0.004455      0.001846
      7.55025      7.21616      2.25578        -0.002148      0.008385      0.008182
      2.52030      7.15252      7.32421         0.012166     -0.002864     -0.011837
      2.26862      9.30776      2.59486         0.011056     -0.005932      0.006587
      7.17949      9.12697      7.06347        -0.004024     -0.004803     -0.002226
      4.74267      2.43390      2.46705         0.001790     -0.004156      0.001438
      4.98917      2.57832      7.33670        -0.003359     -0.004956     -0.003149
      5.14576      7.18262      2.06007        -0.000713      0.002759     -0.001456
      5.01255      7.48282      6.60774         0.002299      0.002970     -0.000266
      2.62210      7.51146      4.74373        -0.002982     -0.000171     -0.013845
      7.08185      7.55976      4.67104         0.005052      0.004780     -0.004290
      2.29953      2.04932      4.15435        -0.002108     -0.005757     -0.005897
      7.13819      2.79511      4.74234         0.006765      0.009973     -0.000900
      2.75510      4.39324      7.55931         0.000189     -0.001783     -0.006145
      6.84961      4.61109      2.26659        -0.005427     -0.001545     -0.002560
      2.45308      2.40830      9.14477        -0.005200     -0.001052     -0.003166
      7.27624      2.41912      0.02122         0.001071      0.006480     -0.003927
      9.41510      2.54920      2.29222        -0.004267      0.000873      0.002822
      0.26626      2.64990      7.39374        -0.004169      0.001106     -0.006869
      7.18122      7.49250      9.60010         0.012862     -0.010781      0.005732
      2.23551      7.32116      0.07348        -0.009347     -0.011762     -0.008655
      0.21601      7.65249      7.27237         0.005590     -0.001968     -0.003277
      0.32097      7.32608      2.32110        -0.002950      0.006273      0.008248
      7.18725      9.57631      2.22865         0.003101      0.002898     -0.003305
      2.30396      9.56356      7.59257         0.011409     -0.002679      0.010775
      2.22858      4.54110      2.41435        -0.000891     -0.000307     -0.005982
      7.31071      4.49110      7.04000         0.002062     -0.001584      0.002303
      9.51122      0.13950      2.49984         0.006261     -0.001121     -0.006217
      9.52387      0.30885      7.09119         0.001201     -0.001843      0.011535
      4.65002      4.87490      2.40365        -0.002515     -0.003727      0.013533
      4.92893      4.84712      7.25244        -0.005668      0.000271      0.010197
      1.78399      3.66978      5.63172         0.000439      0.001204     -0.006375
      7.16665      5.18507      4.53800         0.002172      0.005641      0.006784
      2.46570      0.03300      0.18497        -0.004002     -0.010597      0.008900
      6.97120      0.14366      9.48437         0.003748     -0.003282     -0.004959
      3.71795      3.99904      4.10967        -0.002410      0.004022      0.002133
      3.25747      5.54817      5.58850        -0.005723     -0.001986     -0.003202
      1.54490      5.63121      4.05751         0.001540      0.005383     -0.004392
[...]
      8.50925      1.57497      3.82713        -0.013803     -0.004609     -0.007386
      1.26710      3.93699      8.68832        -0.006905     -0.006729     -0.011028
      8.14879      3.90652      0.98040         0.009695     -0.004318      0.010715
      3.26617      3.72611      0.93313         0.000578     -0.005488     -0.005286
      6.17582      3.86229      8.65580        -0.010470      0.001265      0.001928
      0.85506      3.54099      3.82802        -0.001646      0.004566     -0.010577
      8.63016      3.42718      5.89472        -0.005004      0.006334      0.000198
      6.24007      5.92607      0.85201        -0.010542      0.011040      0.005932
      3.21622      5.88178      8.77191         0.003225      0.011638     -0.009683
      0.97697      6.42075      5.87637         0.007232     -0.000820      0.010243
      8.71598      6.44570      3.76259        -0.005535      0.001311     -0.005295
      5.81665      8.62153      3.33581         0.016664     -0.012423      0.007387
      3.61403      8.77800      6.36042        -0.003850     -0.003060     -0.004218
      1.35619      5.80702      1.09185        -0.005724      0.007963      0.003890
      8.10197      5.86437      8.56055         0.006536      0.005431     -0.001973
    total drift:                               -0.002260      0.007682      0.016096

  FREE ENERGIE OF THE ION-ELECTRON SYSTEM (eV)
  free  energy   TOTEN  =      -484.65903960 eV

  energy  without entropy=     -484.65903960  energy(sigma->0) =     -484.65903960

 d Force = 0.5306664E-03[ 0.507E-04, 0.101E-02]  d Energy = 0.5312366E-03-0.570E-06
 d Force =-0.2406045E+01[-0.241E+01,-0.240E+01]  d Ewald  =-0.3219627E+01 0.814E+00

 Conjugate gradient step on ions:
 trial-energy change:   -0.000531  1 .order   -0.000523   -0.000988   -0.000057
  (g-gl).g = 0.108E-02      g.g   = 0.104E-02  gl.gl    = 0.339E-02
 g(Force)  = 0.947E-03   g(Stress)= 0.941E-04 ortho     =-0.644E-04
 gamma     =   0.31886
 trial     =   0.96807
 opt step  =   1.02771  (harmonic =   1.02771) maximal distance =0.00160154
 next E    =  -484.659033   (d E  =  -0.00052)

 reached required accuracy - stopping structural energy minimisation

 total charge

[...]

 magnetization (x)

# of ion       s       p       d       tot
    1        0.000   0.000   0.000   0.000
    2        0.000   0.000   0.000   0.000
    3       -0.000  -0.000   0.000  -0.000
    4       -0.000  -0.000   0.000  -0.000
    5        0.000   0.000   0.000   0.000
    6        0.000   0.000   0.000   0.000
    7        0.000   0.000   0.000   0.000
    8       -0.000  -0.000   0.000  -0.000
    9       -0.000  -0.000   0.000  -0.000
   10        0.000   0.000   0.000   0.000
   11        0.000   0.000   0.000   0.000
   12        0.000   0.000   0.000   0.000
   13       -0.000  -0.000   0.000  -0.000
   14        0.000   0.000   0.000   0.000
   15       -0.000  -0.000   0.000  -0.000
   16       -0.000  -0.000   0.000  -0.000
   17        0.000  -0.000   0.000   0.000
   18        0.000  -0.000   0.000   0.000
   19        0.000   0.000   0.000   0.000
   20        0.000   0.000   0.000   0.000
   21        0.000   0.000   0.000   0.000
   22       -0.000   0.000   0.000   0.000
   23        0.000   0.000   0.000   0.000
   24       -0.000   0.000   0.000  -0.000
   25       -0.000   0.000   0.000  -0.000
   26        0.000   0.000   0.000   0.000
   27        0.000  -0.000   0.000  -0.000
   28       -0.000  -0.000   0.000  -0.000
   29       -0.000  -0.000   0.000  -0.000
   30        0.000   0.000   0.000   0.000
   31        0.000   0.000   0.000   0.000
   32        0.000   0.000   0.000   0.000
   33        0.000   0.000   0.000   0.000
   34       -0.000   0.000   0.000  -0.000
   35       -0.000  -0.000   0.000  -0.000
   36       -0.000  -0.000   0.000  -0.000
   37        0.000   0.000   0.000   0.000
   38        0.000   0.000   0.000   0.000
   39       -0.000  -0.000   0.000  -0.000
   40       -0.000  -0.000   0.000  -0.000
   41        0.000  -0.000   0.000  -0.000
   42        0.000  -0.000   0.000  -0.000
   43       -0.000   0.000   0.000  -0.000
   44       -0.000   0.000   0.000   0.000
   45        0.000   0.000   0.000   0.000
   46       -0.000   0.000   0.000   0.000
   47       -0.000   0.000   0.000   0.000
   48       -0.000  -0.000   0.000  -0.000
   49       -0.000  -0.000   0.000  -0.000
   50       -0.000  -0.000   0.000  -0.000
   51       -0.000  -0.000   0.000  -0.000
   52       -0.000  -0.000   0.000  -0.000
   53        0.000   0.000   0.000   0.000
   54        0.000   0.000   0.000   0.000
   55        0.000   0.000   0.000   0.000
   56       -0.000  -0.000   0.000  -0.000
   57        0.000   0.000   0.000   0.000
   58        0.000   0.000   0.000   0.000
   59       -0.000  -0.000   0.000  -0.000
   60       -0.000  -0.000   0.000  -0.000
[...]
   86       -0.000   0.000   0.000   0.000
   87       -0.000   0.000   0.000   0.000
   88       -0.000  -0.000   0.000  -0.000
   89        0.000   0.000   0.000   0.000
   90       -0.000   0.000   0.000   0.000
   91        0.000   0.000   0.000   0.000
   92       -0.000   0.000   0.000   0.000
   93       -0.000   0.000   0.000   0.000
   94        0.000   0.000   0.000   0.000
   95        0.000  -0.000   0.000  -0.000
   96        0.000  -0.000   0.000   0.000
   97        0.000  -0.000   0.000  -0.000
   98        0.000  -0.000   0.000  -0.000
   99        0.000  -0.000   0.000  -0.000
  100       -0.000   0.000   0.000   0.000
tot         -0.000   0.000   0.000   0.000

 BZINTS: Fermi energy:    3.914022;  378.000000 electrons
         Band energy:-0.544661E+04;  BLOECHL correction:   -0.000000