 vasp.6.1.2 22Jul20 (build Mar 20 2021 11:25:07) complex

 executed on             LinuxIFC date 2021.04.05  18:27:25

 INCAR:
 POTCAR:    PAW_PBE Li_sv 10Sep2004
 POTCAR:    PAW_PBE O 08Apr2002
 POTCAR:    PAW_PBE Li_sv 10Sep2004
   VRHFIN =Li: 1s2s2p

   TITEL  = PAW_PBE Li_sv 10Sep2004
   POMASS =    7.010; ZVAL   =    3.000    mass and valenz
   ENMAX  =  499.034; ENMIN  =  374.276 eV

 POTCAR:    PAW_PBE O 08Apr2002
   VRHFIN =O: s2p4

   TITEL  = PAW_PBE O 08Apr2002
   POMASS =   16.000; ZVAL   =    6.000    mass and valenz
   ENMAX  =  400.000; ENMIN  =  300.000 eV

 Optimization of the real space projectors (new method)

 maximal supplied QI-value         = 22.11
 optimisation between [QCUT,QGAM] = [ 11.50, 23.22] = [ 37.02,150.92] Ry
 Optimized for a Real-space Cutoff    1.08 Angstroem

   l    n(q)    QCUT    max X(q) W(low)/X(q) W(high)/X(q)  e(spline)
   0      7    11.497    10.506    0.36E-04    0.62E-04    0.14E-07
   0      7    11.497     8.367    0.65E-04    0.14E-03    0.28E-07
   1      7    11.497     8.983    0.21E-03    0.43E-03    0.90E-07
 Optimization of the real space projectors (new method)

 maximal supplied QI-value         = 24.76
 optimisation between [QCUT,QGAM] = [ 11.64, 23.27] = [ 37.91,151.63] Ry
 Optimized for a Real-space Cutoff    1.14 Angstroem

   l    n(q)    QCUT    max X(q) W(low)/X(q) W(high)/X(q)  e(spline)
   0      8    11.635    20.381    0.10E-03    0.33E-03    0.24E-06
   0      8    11.635    15.268    0.11E-03    0.35E-03    0.26E-06
   1      7    11.635     5.964    0.24E-03    0.31E-03    0.30E-06
   1      7    11.635     5.382    0.22E-03    0.25E-03    0.26E-06
  PAW_PBE Li_sv 10Sep2004               :
  PAW_PBE O 08Apr2002                   :

 POSCAR: Li1 O8
  positions in direct lattice
 exchange correlation table for  LEXCH =        8
   RHO(1)=    0.500       N(1)  =     2000
   RHO(2)=  100.500       N(2)  =     4000

 ion  position               nearest neighbor table
   1  0.496  0.804  0.804-   7 2.06   9 2.08   4 2.14   5 2.19   3 2.22   2 2.25
   2  0.842  0.333  0.820-   3 1.28   1 2.25
   3  0.151  0.233  0.700-   2 1.28   1 2.22
   4  0.151  0.700  0.233-   5 1.28   1 2.14
   5  0.842  0.820  0.333-   4 1.28   1 2.19
   6  0.838  0.256  0.256-   8 1.26
   7  0.154  0.741  0.741-   9 1.29   1 2.06
   8  0.142  0.153  0.153-   6 1.26
   9  0.844  0.865  0.865-   7 1.29   1 2.08

  LATTYP: Found a triclinic cell.
 ALAT       =     8.0680260451
 B/A-ratio  =     1.2621279393
 C/A-ratio  =     2.4253892493
 COS(alpha) =     0.0018161532
 COS(beta)  =     0.4823468264
 COS(gamma) =     0.8745690818

  Lattice vectors:

 A1 = (  -3.5737710000,   4.7628950000,  -5.4438990000)
 A2 = (  -1.8776330000,   9.2159980000,  -3.9026840000)
 A3 = (  -9.2538000000,  -8.2559470000, -15.1366180000)

Analysis of symmetry for initial positions (statically):
 Subroutine PRICEL returns:
 Original cell was already a primitive cell.

 Routine SETGRP: Setting up the symmetry group for a
 triclinic supercell.

 Subroutine GETGRP returns: Found  1 space group operations
 (whereof  1 operations were pure point group operations)
 out of a pool of  2 trial point group operations.

The static configuration has the point symmetry C_1 .

Analysis of symmetry for dynamics (positions and initial velocities):
 Subroutine PRICEL returns:
 Original cell was already a primitive cell.

[...]

The dynamic configuration has the point symmetry C_1 .

Analysis of structural, dynamic, and magnetic symmetry:
 Subroutine PRICEL returns:
 Original cell was already a primitive cell.

 Routine SETGRP: Setting up the symmetry group for a
 triclinic supercell.

 Subroutine GETGRP returns: Found  1 space group operations
 (whereof  1 operations were pure point group operations)
 out of a pool of  2 trial point group operations.

The magnetic configuration has the point symmetry C_1 .

 Subroutine INISYM returns: Found  1 space group operations
 (whereof  1 operations are pure point group operations),
 and found     1 'primitive' translations

                                     Primitive cell

  volume of cell :     101.6684

  direct lattice vectors                    reciprocal lattice vectors
     4.678294000  0.030675000  1.916040000     0.227188009 -0.075599135 -0.031592919
     1.696138000  4.453103000  1.541215000    -0.007945854  0.222105004  0.015845164
     0.591615000 -0.340467000  5.069074000    -0.083458053 -0.038953978  0.204398770

  length of vectors
     5.055549919  5.008228641  5.114825247     0.241511352  0.222811217  0.224190803

  position of ions in fractional coordinates (direct lattice)
     0.495530000  0.803706000  0.803706000
     0.842098000  0.333358000  0.820393000
     0.150600000  0.233297000  0.699617000
     0.150600000  0.699617000  0.233297000
     0.842098000  0.820393000  0.333358000
     0.838017000  0.255822000  0.255822000
     0.153713000  0.741225000  0.741225000
     0.142059000  0.152549000  0.152549000
     0.843618000  0.864795000  0.864795000

  ion indices of the primitive-cell ions
   primitive index   ion index
                 1           1
                 2           2
                 3           3
                 4           4
                 5           5
                 6           6
                 7           7
                 8           8
                 9           9

 KPOINTS: Fully automatic kpoint scheme

Automatic generation of k-mesh.
 generate k-points for:    8    7    7
Space group operators:
 irot       det(A)        alpha          n_x          n_y          n_z        tau_x        tau_y        tau_z
    1     1.000000     0.000000     1.000000     0.000000     0.000000     0.000000     0.000000     0.000000
 TETIRR: Found   1174 inequivalent tetrahedra from     2352

 Subroutine IBZKPT returns following result:

 Found    197 irreducible k-points:

 Following reciprocal coordinates:
            Coordinates               Weight
  0.000000  0.000000  0.000000      1.000000
  0.125000  0.000000 -0.000000      2.000000
  0.250000  0.000000  0.000000      2.000000
  0.375000 -0.000000 -0.000000      2.000000
  0.500000  0.000000  0.000000      1.000000
 -0.000000  0.142857 -0.000000      2.000000
  0.125000  0.142857 -0.000000      2.000000
  0.250000  0.142857  0.000000      2.000000
  0.375000  0.142857 -0.000000      2.000000
  0.500000  0.142857  0.000000      2.000000
 -0.375000  0.142857  0.000000      2.000000
 -0.250000  0.142857 -0.000000      2.000000
 -0.125000  0.142857  0.000000      2.000000
  0.000000  0.285714 -0.000000      2.000000
  0.125000  0.285714  0.000000      2.000000
  0.250000  0.285714  0.000000      2.000000
  0.375000  0.285714 -0.000000      2.000000
  0.500000  0.285714  0.000000      2.000000
 -0.375000  0.285714 -0.000000      2.000000
 -0.250000  0.285714 -0.000000      2.000000
 -0.125000  0.285714  0.000000      2.000000
 -0.000000  0.428571 -0.000000      2.000000
  0.125000  0.428571  0.000000      2.000000
  0.250000  0.428571 -0.000000      2.000000
  0.375000  0.428571 -0.000000      2.000000
  0.500000  0.428571  0.000000      2.000000
 -0.375000  0.428571 -0.000000      2.000000
 -0.250000  0.428571 -0.000000      2.000000
 -0.125000  0.428571  0.000000      2.000000
  0.000000 -0.000000  0.142857      2.000000
  0.125000  0.000000  0.142857      2.000000
  0.250000 -0.000000  0.142857      2.000000
  0.375000  0.000000  0.142857      2.000000
  0.500000  0.000000  0.142857      2.000000
 -0.375000 -0.000000  0.142857      2.000000
 -0.250000  0.000000  0.142857      2.000000
 -0.125000 -0.000000  0.142857      2.000000
  0.000000  0.142857  0.142857      2.000000
  0.125000  0.142857  0.142857      2.000000
  0.250000  0.142857  0.142857      2.000000
  0.375000  0.142857  0.142857      2.000000
  0.500000  0.142857  0.142857      2.000000
 -0.375000  0.142857  0.142857      2.000000
 -0.250000  0.142857  0.142857      2.000000
 -0.125000  0.142857  0.142857      2.000000
  0.000000  0.285714  0.142857      2.000000
  0.125000  0.285714  0.142857      2.000000
  0.250000  0.285714  0.142857      2.000000
  0.375000  0.285714  0.142857      2.000000
  0.500000  0.285714  0.142857      2.000000
 -0.375000  0.285714  0.142857      2.000000
 -0.250000  0.285714  0.142857      2.000000
 -0.125000  0.285714  0.142857      2.000000
 -0.000000  0.428571  0.142857      2.000000
  0.125000  0.428571  0.142857      2.000000
  0.250000  0.428571  0.142857      2.000000
  0.375000  0.428571  0.142857      2.000000
  0.500000  0.428571  0.142857      2.000000
 -0.375000  0.428571  0.142857      2.000000
 -0.250000  0.428571  0.142857      2.000000
[...]
  0.125000 -0.285714  0.428571      2.000000
  0.250000 -0.285714  0.428571      2.000000
  0.375000 -0.285714  0.428571      2.000000
  0.500000 -0.285714  0.428571      2.000000
 -0.375000 -0.285714  0.428571      2.000000
 -0.250000 -0.285714  0.428571      2.000000
 -0.125000 -0.285714  0.428571      2.000000
  0.000000 -0.142857  0.428571      2.000000
  0.125000 -0.142857  0.428571      2.000000
  0.250000 -0.142857  0.428571      2.000000
  0.375000 -0.142857  0.428571      2.000000
  0.500000 -0.142857  0.428571      2.000000
 -0.375000 -0.142857  0.428571      2.000000
 -0.250000 -0.142857  0.428571      2.000000
 -0.125000 -0.142857  0.428571      2.000000

 Following cartesian coordinates:
            Coordinates               Weight
  0.000000  0.000000  0.000000      1.000000
  0.028399 -0.009450 -0.003949      2.000000
  0.056797 -0.018900 -0.007898      2.000000
  0.085196 -0.028350 -0.011847      2.000000
  0.113594 -0.037800 -0.015796      1.000000
 -0.001135  0.031729  0.002264      2.000000
  0.027263  0.022279 -0.001686      2.000000
  0.055662  0.012830 -0.005635      2.000000
  0.084060  0.003380 -0.009584      2.000000
  0.112459 -0.006070 -0.013533      2.000000
 -0.086331  0.060079  0.014111      2.000000
 -0.057932  0.050629  0.010162      2.000000
 -0.029534  0.041179  0.006213      2.000000
 -0.002270  0.063459  0.004527      2.000000
  0.026128  0.054009  0.000578      2.000000
  0.054527  0.044559 -0.003371      2.000000
  0.082925  0.035109 -0.007320      2.000000
  0.111324  0.025659 -0.011269      2.000000
 -0.087466  0.091808  0.016375      2.000000
 -0.059067  0.082358  0.012425      2.000000
 -0.030669  0.072908  0.008476      2.000000
 -0.003405  0.095188  0.006791      2.000000
  0.024993  0.085738  0.002842      2.000000
  0.053392  0.076288 -0.001107      2.000000
  0.081790  0.066838 -0.005057      2.000000
  0.110189  0.057388 -0.009006      2.000000
 -0.088601  0.123538  0.018638      2.000000
 -0.060202  0.114088  0.014689      2.000000
 -0.031804  0.104638  0.010740      2.000000
 -0.011923 -0.005565  0.029200      2.000000
  0.016476 -0.015015  0.025251      2.000000
  0.044874 -0.024465  0.021302      2.000000
  0.073273 -0.033915  0.017352      2.000000
  0.101671 -0.043364  0.013403      2.000000
 -0.097118  0.022785  0.041047      2.000000
 -0.068720  0.013335  0.037098      2.000000
 -0.040321  0.003885  0.033149      2.000000
 -0.013058  0.026164  0.031463      2.000000
  0.015341  0.016715  0.027514      2.000000
  0.043739  0.007265  0.023565      2.000000
[...]
 k-point  34 :   0.5000 0.0000 0.1429  plane waves:    2738
 k-point  35 :  -0.3750-0.0000 0.1429  plane waves:    2741
 k-point  36 :  -0.2500 0.0000 0.1429  plane waves:    2732
 k-point  37 :  -0.1250-0.0000 0.1429  plane waves:    2732
 k-point  38 :   0.0000 0.1429 0.1429  plane waves:    2749
 k-point  39 :   0.1250 0.1429 0.1429  plane waves:    2750
 k-point  40 :   0.2500 0.1429 0.1429  plane waves:    2748
 k-point  41 :   0.3750 0.1429 0.1429  plane waves:    2746
 k-point  42 :   0.5000 0.1429 0.1429  plane waves:    2744
 k-point  43 :  -0.3750 0.1429 0.1429  plane waves:    2733
 k-point  44 :  -0.2500 0.1429 0.1429  plane waves:    2740
 k-point  45 :  -0.1250 0.1429 0.1429  plane waves:    2744
 k-point  46 :   0.0000 0.2857 0.1429  plane waves:    2750
 k-point  47 :   0.1250 0.2857 0.1429  plane waves:    2748
 k-point  48 :   0.2500 0.2857 0.1429  plane waves:    2735
 k-point  49 :   0.3750 0.2857 0.1429  plane waves:    2740
 k-point  50 :   0.5000 0.2857 0.1429  plane waves:    2736
 k-point  51 :  -0.3750 0.2857 0.1429  plane waves:    2741
 k-point  52 :  -0.2500 0.2857 0.1429  plane waves:    2734
 k-point  53 :  -0.1250 0.2857 0.1429  plane waves:    2747
 k-point  54 :  -0.0000 0.4286 0.1429  plane waves:    2752
 k-point  55 :   0.1250 0.4286 0.1429  plane waves:    2752
 k-point  56 :   0.2500 0.4286 0.1429  plane waves:    2739
 k-point  57 :   0.3750 0.4286 0.1429  plane waves:    2727
 k-point  58 :   0.5000 0.4286 0.1429  plane waves:    2727
 k-point  59 :  -0.3750 0.4286 0.1429  plane waves:    2733
 k-point  60 :  -0.2500 0.4286 0.1429  plane waves:    2744
[...]
 k-point 183 :   0.1250-0.2857 0.4286  plane waves:    2734
 k-point 184 :   0.2500-0.2857 0.4286  plane waves:    2736
 k-point 185 :   0.3750-0.2857 0.4286  plane waves:    2719
 k-point 186 :   0.5000-0.2857 0.4286  plane waves:    2729
 k-point 187 :  -0.3750-0.2857 0.4286  plane waves:    2729
 k-point 188 :  -0.2500-0.2857 0.4286  plane waves:    2728
 k-point 189 :  -0.1250-0.2857 0.4286  plane waves:    2731
 k-point 190 :   0.0000-0.1429 0.4286  plane waves:    2731
 k-point 191 :   0.1250-0.1429 0.4286  plane waves:    2736
 k-point 192 :   0.2500-0.1429 0.4286  plane waves:    2746
 k-point 193 :   0.3750-0.1429 0.4286  plane waves:    2730
 k-point 194 :   0.5000-0.1429 0.4286  plane waves:    2734
 k-point 195 :  -0.3750-0.1429 0.4286  plane waves:    2736
 k-point 196 :  -0.2500-0.1429 0.4286  plane waves:    2733
 k-point 197 :  -0.1250-0.1429 0.4286  plane waves:    2721

 maximum and minimum number of plane-waves per node :       472      441

 maximum number of plane-waves:      2760
 maximum index in each direction:
   IXMAX=    9   IYMAX=    9   IZMAX=    9
   IXMIN=   -9   IYMIN=   -9   IZMIN=   -9

 real space projection operators:
  max/ min on nodes  :        380.31        258.91

 parallel 3D FFT for wavefunctions:
    minimum data exchange during FFTs selected (reduces bandwidth)
 parallel 3D FFT for charge:
    minimum data exchange during FFTs selected (reduces bandwidth)

 Broyden mixing: mesh for mixing (old mesh)
   NGX = 19   NGY = 19   NGZ = 19
  (NGX  = 80   NGY  = 80   NGZ  = 80)
  gives a total of   6859 points

 initial charge density was supplied:
 charge density of overlapping atoms calculated
 number of electron      51.0000000 magnetization       5.4000000
 keeping initial charge density in first step

 Maximum index for non-local projection operator          719
 Maximum index for augmentation-charges          770 (set IRDMAX)

 First call to EWALD:  gamma=   0.380
 Maximum number of real-space cells 3x 3x 3
 Maximum number of reciprocal cells 3x 3x 3

--------------------------------------- Iteration      1(   1)  ---------------------------------------

 BZINTS: Fermi energy:   14.335892;   51.000000 electrons
         Band energy:-0.155422E+03;  BLOECHL correction:   -0.260032

 eigenvalue-minimisations  : 26792
 total energy-change (2. order) : 0.3622120E+03  (-0.2806239E+04)
 number of electron      51.0000000 magnetization       5.4000000
 augmentation part       51.0000000 magnetization       5.4000000

 Free energy of the ion-electron system (eV)
  alpha Z        PSCENC =        96.78760381
  Ewald energy   TEWEN  =     -2182.59744366
  -Hartree energ DENC   =     -1260.93297002
  -exchange      EXHF   =         0.00000000
  -V(xc)+E(xc)   XCENC  =       232.49751899
  PAW double counting   =      2851.65822685    -2881.41598340
  entropy T*S    EENTRO =         0.00000000
  eigenvalues    EBANDS =      -155.42172435
  atomic energy  EATOM  =      3661.63673913
  Solvation  Ediel_sol  =         0.00000000
  free energy    TOTEN  =       362.21196737 eV

  energy without entropy =      362.21196737  energy(sigma->0) =      362.21196737

[...]

 eigenvalue-minimisations  : 34926
 total energy-change (2. order) :-0.3801230E+03  (-0.3665360E+03)
 number of electron      51.0000000 magnetization       5.4000000
 augmentation part       51.0000000 magnetization       5.4000000

[...]

 Broyden mixing:
  rms(total) = 0.14487E+01    rms(broyden)= 0.14477E+01
  rms(prec ) = 0.20635E+01
  weight for this iteration     100.00

[...]

 eigenvalues of (default mixing * dielectric matrix)
  average eigenvalue GAMMA=   0.7356
  0.7356

[...]

 eigenvalue-minimisations  : 38621
 total energy-change (2. order) : 0.1353782E-03  (-0.2971001E-03)
 number of electron      51.0000004 magnetization       0.0161153
 augmentation part        5.5016186 magnetization       0.0033000

[...]

WARNING in EDDRMM: call to ZHEGV failed, returncode =   6  3     15
 BZINTS: Fermi energy:    0.796374;   51.000000 electrons
         Band energy:-0.542772E+03;  BLOECHL correction:   -0.025752

[...]

 Broyden mixing:
  rms(total) = 0.85285E-03    rms(broyden)= 0.84706E-03
  rms(prec ) = 0.11287E-02
  weight for this iteration     100.00

 eigenvalues of (default mixing * dielectric matrix)
  average eigenvalue GAMMA=   1.1126
  3.4040  2.4010  1.6382  1.3226  1.0072  0.2484  0.3392  0.3140  0.8183  0.5145
  0.6907  0.6535

[...]

--------------------------------------- Iteration      1(  18)  ---------------------------------------

WARNING in EDDRMM: call to ZHEGV failed, returncode =   6  3      2
WARNING in EDDRMM: call to ZHEGV failed, returncode =   8  4     12
 BZINTS: Fermi energy:    0.800285;   51.000000 electrons
         Band energy:-0.542555E+03;  BLOECHL correction:   -0.025778

 eigenvalue-minimisations  : 32977
 total energy-change (2. order) :-0.8748558E-05  (-0.5167612E-05)
 number of electron      51.0000004 magnetization       0.0046710
 augmentation part        5.5007768 magnetization       0.0006957

 Free energy of the ion-electron system (eV)
  alpha Z        PSCENC =        96.78760381
  Ewald energy   TEWEN  =     -2182.59744366
  -Hartree energ DENC   =     -1281.41956748
  -exchange      EXHF   =         0.00000000
  -V(xc)+E(xc)   XCENC  =       234.26213486
  PAW double counting   =      3549.23997647    -3579.26613120
  entropy T*S    EENTRO =         0.00000000
  eigenvalues    EBANDS =      -542.55519142
  atomic energy  EATOM  =      3661.63673913
  Solvation  Ediel_sol  =         0.00000000
  free energy    TOTEN  =       -43.91187949 eV

  energy without entropy =      -43.91187949  energy(sigma->0) =      -43.91187949

 average (electrostatic) potential at core
  the test charge radii are     0.7079  0.7215
  (the norm of the test charge is              1.0000)
       1 -63.4222       2 -77.2828       3 -77.1098       4 -77.0922       5 -77.1479
       6 -77.6251       7 -76.8762       8 -77.4545       9 -76.9324

 E-fermi :   0.8003     XC(G=0):  -9.1461     alpha+bet : -7.3637

 spin component 1

 k-point     1 :       0.0000    0.0000    0.0000
  band No.  band energies     occupation
      1     -44.3399      1.00000
      2     -25.5982      1.00000
      3     -24.5223      1.00000
      4     -24.3607      1.00000
      5     -23.7899      1.00000
      6     -14.6913      1.00000
      7     -13.9167      1.00000
      8     -13.7670      1.00000
      9     -12.9345      1.00000
     10      -8.1000      1.00000
     11      -7.6693      1.00000
     12      -7.5945      1.00000
     13      -7.0641      1.00000
     14      -6.4506      1.00000
     15      -6.1849      1.00000
     16      -5.9818      1.00000
     17      -5.9270      1.00000
     18      -3.9485      1.00000
     19      -3.8229      1.00000
     20      -3.6727      1.00000
     21      -3.5167      1.00000
     22      -1.6883      1.00000
     23      -1.5475      1.00000
     24      -0.9555      1.00000
     25      -0.1534      1.00000
     26       1.4967      0.00000
     27       1.6270      0.00000
     28       1.6725      0.00000
     29       1.9455      0.00000
     30       7.1713      0.00000
     31       7.3797      0.00000
     32       8.7790      0.00000
     33       8.8733      0.00000
     34       9.0719      0.00000

[...]

 spin component 2

[...]

 k-point   197 :      -0.1250   -0.1429    0.4286
  band No.  band energies     occupation
      1     -44.3395      1.00000
      2     -25.5064      1.00000
      3     -24.6392      1.00000
      4     -24.2945      1.00000
      5     -23.8633      1.00000
      6     -14.6176      1.00000
      7     -14.0296      1.00000
      8     -13.7301      1.00000
      9     -12.9895      1.00000
     10      -7.8187      1.00000
     11      -7.5200      1.00000
     12      -7.0766      1.00000
     13      -6.8169      1.00000
     14      -6.5917      1.00000
     15      -6.2294      1.00000
     16      -6.0327      1.00000
     17      -5.7184      1.00000
     18      -4.9369      1.00000
     19      -4.1590      1.00000
     20      -3.9572      1.00000
     21      -3.5173      1.00000
     22      -1.3787      1.00000
     23      -0.9006      1.00000
     24      -0.7160      1.00000
     25      -0.1366      1.00000
     26       0.5443      1.05340
     27       1.3801      0.00000
     28       1.5254      0.00000
     29       1.8588      0.00000
     30       7.1303      0.00000
     31       7.3698      0.00000
     32       8.1374      0.00000
     33       8.9018      0.00000
     34      11.2854      0.00000

 soft charge-density along one line, spin component           1
         0         1         2         3         4         5         6         7         8         9
 total charge-density along one line

 soft charge-density along one line, spin component           2
         0         1         2         3         4         5         6         7         8         9
 total charge-density along one line

------------------------ aborting loop because EDIFF is reached ----------------------------------------

 total charge

# of ion       s       p       d       tot
    1        2.008   0.036   0.000   2.045
    2        1.610   3.260   0.000   4.871
    3        1.611   3.265   0.000   4.876
    4        1.610   3.265   0.000   4.875
    5        1.610   3.265   0.000   4.875
    6        1.623   3.232   0.000   4.855
    7        1.605   3.271   0.000   4.876
    8        1.616   3.268   0.000   4.885
    9        1.605   3.272   0.000   4.877
tot         14.899  26.135   0.000  41.034

 magnetization (x)

[...]

  FORCE on cell =-STRESS in cart. coord.  units (eV):
  Direction    XX          YY          ZZ          XY          YZ          ZX
  Alpha Z    96.78760    96.78760    96.78760
  Ewald    -481.69658  -795.71323  -905.19139  -166.61538    23.05848   -45.22601
  Hartree   351.63842   476.95156   452.83651    31.92311    -3.84114    18.72390
  E(xc)    -246.20364  -248.50837  -248.94099    -1.04028     0.17252    -0.31590
  Local    -577.85386  -512.40852  -400.19566    79.30117   -11.91733     8.15266
  n-local  -196.71099  -191.13196  -191.29468     1.90748    -0.11670     0.48873
  augment    60.11812    68.82035    70.53887     4.04021    -0.56252     1.32781
  Kinetic   987.82366  1104.25510  1125.76133    55.24133    -7.18980    17.67877
  Fock        0.00000     0.00000     0.00000     0.00000     0.00000     0.00000
  Total      -6.09726    -0.94747     0.30160     4.75765    -0.39649     0.82997
  in kB     -96.08578   -14.93098     4.75291    74.97511    -6.24829    13.07939

 VOLUME and BASIS-vectors are now :
  energy-cutoff  :      520.00
  volume of cell :      101.67
      direct lattice vectors                 reciprocal lattice vectors
     4.678294000  0.030675000  1.916040000     0.227188009 -0.075599135 -0.031592919
     1.696138000  4.453103000  1.541215000    -0.007945854  0.222105004  0.015845164
     0.591615000 -0.340467000  5.069074000    -0.083458053 -0.038953978  0.204398770

  length of vectors
     5.055549919  5.008228641  5.114825247     0.241511352  0.222811217  0.224190803

 FORCES acting on ions
    electron-ion (+dipol)            ewald-force                    non-local-force                 convergence-correction
   -.195E+02 0.126E+02 0.103E+02   0.193E+02 -.125E+02 -.104E+02   0.235E+00 0.650E-02 0.348E-01   0.147E-03 0.428E-05 0.288E-03
   0.241E+03 -.118E+03 0.327E+02   -.284E+03 0.131E+03 -.288E+02   0.443E+02 -.137E+02 -.408E+01   0.134E-02 -.101E-02 -.800E-03
   -.252E+03 0.186E+02 0.104E+03   0.296E+03 -.285E+02 -.114E+03   -.450E+02 0.107E+02 0.988E+01   -.272E-02 0.156E-02 -.397E-03
   -.209E+03 0.178E+03 -.104E+02   0.248E+03 -.200E+03 0.991E+01   -.407E+02 0.227E+02 0.693E+00   -.131E-02 -.660E-03 0.463E-03
   0.263E+03 -.152E+02 -.338E+02   -.305E+03 0.302E+02 0.349E+02   0.430E+02 -.160E+02 -.120E+01   0.128E-02 -.115E-02 -.582E-03
   0.239E+03 -.151E+03 -.113E+03   -.284E+03 0.170E+03 0.120E+03   0.466E+02 -.197E+02 -.768E+01   0.157E-02 -.186E-03 -.429E-03
   -.216E+03 0.124E+03 0.910E+02   0.253E+03 -.143E+03 -.102E+03   -.387E+02 0.197E+02 0.114E+02   -.291E-02 0.788E-03 -.103E-03
   -.278E+03 0.227E+02 -.662E+02   0.325E+03 -.350E+02 0.673E+02   -.480E+02 0.133E+02 -.981E+00   0.170E-03 0.560E-03 0.503E-03
   0.230E+03 -.702E+02 -.136E+02   -.268E+03 0.876E+02 0.230E+02   0.392E+02 -.182E+02 -.968E+01   0.134E-02 -.493E-04 -.162E-03
   -.834E+00 0.122E+01 0.163E+01   0.114E-12 0.284E-13 0.284E-13   0.839E+00 -.123E+01 -.162E+01   -.109E-02 -.134E-03 -.122E-02

 POSITION                                       TOTAL-FORCE (eV/Angst)
      4.15692      3.32055      6.26218        -0.019287      0.023934     -0.021741
      4.99036      1.23099      6.28590         1.508215     -0.810894     -0.201630
      1.51416      0.80532      4.19453        -1.233425      0.747255      0.132029
      2.02922      3.04066      2.54942        -1.537087      0.914875      0.164311
      5.52830      3.56563      4.56771         0.967706     -1.040664     -0.109991
      4.50575      1.07781      3.29673         1.589366     -0.877354     -0.039371
      2.41485      3.05310      5.19423        -1.328722      0.838712      0.223712
      1.01359      0.63174      1.28058        -1.118806      1.029715      0.101331
      5.92513      3.58247      7.33295         1.172040     -0.825580     -0.248650
    total drift:                                0.003668     -0.005610      0.003679

  FREE ENERGIE OF THE ION-ELECTRON SYSTEM (eV)
  free  energy   TOTEN  =       -43.91187949 eV

  energy  without entropy=      -43.91187949  energy(sigma->0) =      -43.91187949

|           W    W    AA    RRRRR   N    N  II  N    N   GGGG   !!!           |
|           W    W   A  A   R    R  NN   N  II  NN   N  G    G  !!!           |
|           W    W  A    A  R    R  N N  N  II  N N  N  G       !!!           |
|           W WW W  AAAAAA  RRRRR   N  N N  II  N  N N  G  GGG   !            |
|           WW  WW  A    A  R   R   N   NN  II  N   NN  G    G                |
|           W    W  A    A  R    R  N    N  II  N    N   GGGG   !!!           |
|     Tetrahedron method does not include variations of the Fermi             |
|     occupations, so forces and stress will be inaccurate. We suggest        |
|     using a different smearing scheme ISMEAR = 1 or 2 for metals in         |
|     relaxations.                                                            |

 total charge

[...]

 magnetization (x)

# of ion       s       p       d       tot
    1       -0.000  -0.000   0.000  -0.000
    2       -0.000  -0.002   0.000  -0.002
    3       -0.000  -0.002   0.000  -0.002
    4       -0.000  -0.001   0.000  -0.001
    5       -0.000  -0.001   0.000  -0.001
    6        0.000   0.001   0.000   0.001
    7        0.000   0.004   0.000   0.004
    8        0.000   0.001   0.000   0.001
    9        0.000   0.004   0.000   0.004
tot          0.000   0.003   0.000   0.003

 BZINTS: Fermi energy:    0.800285;   51.000000 electrons
         Band energy:-0.542555E+03;  BLOECHL correction:   -0.025778