 vasp.5.4.4.18Apr17-6-g9f103f2a35 (build Aug 12 2020 11:57:02) complex

 executed on             LinuxIFC date 2021.02.03  06:49:41

 INCAR:
 POTCAR:    PAW_PBE Li_sv 10Sep2004
 POTCAR:    PAW_PBE O 08Apr2002
 POTCAR:    PAW_PBE Li_sv 10Sep2004
   VRHFIN =Li: 1s2s2p

   TITEL  = PAW_PBE Li_sv 10Sep2004
   POMASS =    7.010; ZVAL   =    3.000    mass and valenz
   ENMAX  =  499.034; ENMIN  =  374.276 eV

 POTCAR:    PAW_PBE O 08Apr2002
   VRHFIN =O: s2p4

   TITEL  = PAW_PBE O 08Apr2002
   POMASS =   16.000; ZVAL   =    6.000    mass and valenz
   ENMAX  =  400.000; ENMIN  =  300.000 eV

 Optimization of the real space projectors (new method)

 maximal supplied QI-value         = 22.11
 optimisation between [QCUT,QGAM] = [ 11.50, 23.22] = [ 37.02,150.92] Ry
 Optimized for a Real-space Cutoff    1.08 Angstroem

   l    n(q)    QCUT    max X(q) W(low)/X(q) W(high)/X(q)  e(spline)
   0      7    11.497    10.506    0.36E-04    0.62E-04    0.14E-07
   0      7    11.497     8.367    0.65E-04    0.14E-03    0.28E-07
   1      7    11.497     8.983    0.21E-03    0.43E-03    0.90E-07
 Optimization of the real space projectors (new method)

 maximal supplied QI-value         = 24.76
 optimisation between [QCUT,QGAM] = [ 11.64, 23.27] = [ 37.91,151.63] Ry
 Optimized for a Real-space Cutoff    1.14 Angstroem

   l    n(q)    QCUT    max X(q) W(low)/X(q) W(high)/X(q)  e(spline)
   0      8    11.635    20.381    0.10E-03    0.33E-03    0.24E-06
   0      8    11.635    15.268    0.11E-03    0.35E-03    0.26E-06
   1      7    11.635     5.964    0.24E-03    0.31E-03    0.30E-06
   1      7    11.635     5.382    0.22E-03    0.25E-03    0.26E-06
  PAW_PBE Li_sv 10Sep2004               :
  PAW_PBE O 08Apr2002                   :

 POSCAR: Li1 O8
  positions in direct lattice
 exchange correlation table for  LEXCH =        8
   RHO(1)=    0.500       N(1)  =     2000
   RHO(2)=  100.500       N(2)  =     4000

 ion  position               nearest neighbor table
   1  0.496  0.804  0.804-   7 2.08   9 2.10   3 2.17   4 2.17   2 2.20   5 2.20
   2  0.842  0.333  0.820-   3 1.25   1 2.20
   3  0.151  0.233  0.700-   2 1.25   1 2.17
   4  0.151  0.700  0.233-   5 1.25   1 2.17
   5  0.842  0.820  0.333-   4 1.25   1 2.20
   6  0.838  0.256  0.256-   8 1.24
   7  0.154  0.741  0.741-   9 1.26   1 2.08
   8  0.142  0.153  0.153-   6 1.24
   9  0.844  0.865  0.865-   7 1.26   1 2.10

  LATTYP: Found a base centered monoclinic cell.
 ALAT       =     8.1929114546
 B/A-ratio  =     0.7466463321
 C/A-ratio  =     2.4197434563
 COS(beta)  =    -0.7843285427

  Lattice vectors:

 A1 = (   0.5697160000,  -0.3404670000,   5.0690740000)
 A2 = (   1.9825580000,   4.4531030000,   1.5412150000)
 A3 = (  -9.7848150000,  -8.2559470000, -15.1366180000)

Analysis of symmetry for initial positions (statically):
 Subroutine PRICEL returns:
 Original cell was already a primitive cell.

 Routine SETGRP: Setting up the symmetry group for a
 base centered monoclinic supercell.

 Subroutine GETGRP returns: Found  2 space group operations
 (whereof  2 operations were pure point group operations)
 out of a pool of  4 trial point group operations.

The static configuration has the point symmetry C_1h.

Analysis of symmetry for dynamics (positions and initial velocities):
 Subroutine PRICEL returns:
 Original cell was already a primitive cell.

[...]

The dynamic configuration has the point symmetry C_1h.

Analysis of structural, dynamic, and magnetic symmetry:
 Subroutine PRICEL returns:
 Original cell was already a primitive cell.

 Routine SETGRP: Setting up the symmetry group for a
 base centered monoclinic supercell.

 Subroutine GETGRP returns: Found  2 space group operations
 (whereof  2 operations were pure point group operations)
 out of a pool of  4 trial point group operations.

The magnetic configuration has the point symmetry C_1h.

 Subroutine INISYM returns: Found  2 space group operations
 (whereof  2 operations are pure point group operations),
 and found     1 'primitive' translations

 KPOINTS: Fully automatic kpoint scheme

Automatic generation of k-mesh.
 generate k-points for:    8    7    7
Space group operators:
 irot       det(A)        alpha          n_x          n_y          n_z        tau_x        tau_y        tau_z
    1     1.000000     0.000001     1.000000     0.000000     0.000000     0.000000     0.000000     0.000000
    2    -1.000000   180.000000     0.230962     0.783621    -0.576711     0.000000     0.000000     0.000000

 Subroutine IBZKPT returns following result:

 Found    116 irreducible k-points:

 Following reciprocal coordinates:
            Coordinates               Weight
  0.000000  0.000000  0.000000      1.000000
  0.125000 -0.000000  0.000000      2.000000
  0.250000 -0.000000  0.000000      2.000000
  0.375000 -0.000000 -0.000000      2.000000
  0.500000 -0.000000  0.000000      1.000000
 -0.000000  0.142857  0.000000      4.000000
  0.125000  0.142857 -0.000000      4.000000
  0.250000  0.142857 -0.000000      4.000000
  0.375000  0.142857  0.000000      4.000000
  0.500000  0.142857  0.000000      4.000000
 -0.375000  0.142857  0.000000      4.000000
 -0.250000  0.142857  0.000000      4.000000
 -0.125000  0.142857  0.000000      4.000000
 -0.000000  0.285714  0.000000      4.000000
  0.125000  0.285714  0.000000      4.000000
  0.250000  0.285714 -0.000000      4.000000
  0.375000  0.285714 -0.000000      4.000000
  0.500000  0.285714  0.000000      4.000000
 -0.375000  0.285714  0.000000      4.000000
 -0.250000  0.285714  0.000000      4.000000
 -0.125000  0.285714  0.000000      4.000000
 -0.000000  0.428571 -0.000000      4.000000
  0.125000  0.428571 -0.000000      4.000000
  0.250000  0.428571 -0.000000      4.000000
  0.375000  0.428571 -0.000000      4.000000
  0.500000  0.428571  0.000000      4.000000
 -0.375000  0.428571  0.000000      4.000000
 -0.250000  0.428571  0.000000      4.000000
 -0.125000  0.428571  0.000000      4.000000
 -0.000000  0.142857  0.142857      2.000000
  0.125000  0.142857  0.142857      2.000000
  0.250000  0.142857  0.142857      2.000000
  0.375000  0.142857  0.142857      2.000000
  0.500000  0.142857  0.142857      2.000000
 -0.375000  0.142857  0.142857      2.000000
 -0.250000  0.142857  0.142857      2.000000
 -0.125000  0.142857  0.142857      2.000000
 -0.000000  0.285714  0.142857      4.000000
  0.125000  0.285714  0.142857      4.000000
  0.250000  0.285714  0.142857      4.000000
  0.375000  0.285714  0.142857      4.000000
  0.500000  0.285714  0.142857      4.000000
 -0.375000  0.285714  0.142857      4.000000
 -0.250000  0.285714  0.142857      4.000000
 -0.125000  0.285714  0.142857      4.000000
  0.000000  0.428571  0.142857      4.000000
  0.125000  0.428571  0.142857      4.000000
  0.250000  0.428571  0.142857      4.000000
  0.375000  0.428571  0.142857      4.000000
  0.500000  0.428571  0.142857      4.000000
 -0.375000  0.428571  0.142857      4.000000
 -0.250000  0.428571  0.142857      4.000000
 -0.125000  0.428571  0.142857      4.000000
 -0.000000 -0.428571  0.142857      4.000000
  0.125000 -0.428571  0.142857      4.000000
  0.250000 -0.428571  0.142857      4.000000
  0.375000 -0.428571  0.142857      4.000000
  0.500000 -0.428571  0.142857      4.000000
 -0.375000 -0.428571  0.142857      4.000000
 -0.250000 -0.428571  0.142857      4.000000
[...]
  0.375000 -0.285714  0.285714      4.000000
  0.500000 -0.285714  0.285714      2.000000
 -0.000000  0.428571  0.428571      2.000000
  0.125000  0.428571  0.428571      2.000000
  0.250000  0.428571  0.428571      2.000000
  0.375000  0.428571  0.428571      2.000000
  0.500000  0.428571  0.428571      2.000000
 -0.375000  0.428571  0.428571      2.000000
 -0.250000  0.428571  0.428571      2.000000
 -0.125000  0.428571  0.428571      2.000000
  0.000000 -0.428571  0.428571      2.000000
  0.125000 -0.428571  0.428571      4.000000
  0.250000 -0.428571  0.428571      4.000000
  0.375000 -0.428571  0.428571      4.000000
  0.500000 -0.428571  0.428571      2.000000

 Following cartesian coordinates:
            Coordinates               Weight
  0.000000  0.000000  0.000000      1.000000
  0.028399 -0.011276 -0.003949      2.000000
  0.056797 -0.022553 -0.007898      2.000000
  0.085196 -0.033829 -0.011847      2.000000
  0.113594 -0.045106 -0.015796      1.000000
 -0.001135  0.031802  0.002264      4.000000
  0.027263  0.020526 -0.001686      4.000000
  0.055662  0.009249 -0.005635      4.000000
  0.084060 -0.002027 -0.009584      4.000000
  0.112459 -0.013304 -0.013533      4.000000
 -0.086331  0.065632  0.014111      4.000000
 -0.057932  0.054355  0.010162      4.000000
 -0.029534  0.043079  0.006213      4.000000
 -0.002270  0.063605  0.004527      4.000000
  0.026128  0.052328  0.000578      4.000000
  0.054527  0.041052 -0.003371      4.000000
  0.082925  0.029775 -0.007320      4.000000
  0.111324  0.018499 -0.011269      4.000000
 -0.087466  0.097434  0.016375      4.000000
 -0.059067  0.086158  0.012425      4.000000
 -0.030669  0.074881  0.008476      4.000000
 -0.003405  0.095407  0.006791      4.000000
  0.024993  0.084130  0.002842      4.000000
  0.053392  0.072854 -0.001107      4.000000
  0.081790  0.061578 -0.005057      4.000000
  0.110189  0.050301 -0.009006      4.000000
 -0.088601  0.129236  0.018638      4.000000
 -0.060202  0.117960  0.014689      4.000000
 -0.031804  0.106683  0.010740      4.000000
 -0.013058  0.027004  0.031463      2.000000
  0.015341  0.015728  0.027514      2.000000
  0.043739  0.004451  0.023565      2.000000
  0.072138 -0.006825  0.019616      2.000000
  0.100536 -0.018102  0.015667      2.000000
 -0.098253  0.060834  0.043311      2.000000
 -0.069855  0.049557  0.039362      2.000000
 -0.041456  0.038281  0.035413      2.000000
 -0.014193  0.058807  0.033727      4.000000
  0.014206  0.047530  0.029778      4.000000
  0.042604  0.036254  0.025829      4.000000
  0.071003  0.024977  0.021880      4.000000
  0.099401  0.013701  0.017931      4.000000
 -0.099388  0.092636  0.045574      4.000000
 -0.070990  0.081360  0.041625      4.000000
 -0.042591  0.070083  0.037676      4.000000
 -0.015328  0.090609  0.035991      4.000000
  0.013071  0.079332  0.032041      4.000000
  0.041469  0.068056  0.028092      4.000000
  0.069868  0.056780  0.024143      4.000000
  0.098266  0.045503  0.020194      4.000000
 -0.100523  0.124438  0.047838      4.000000
 -0.072125  0.113162  0.043889      4.000000
 -0.043726  0.101885  0.039940      4.000000
 -0.008517 -0.100205  0.022409      4.000000
  0.019881 -0.111481  0.018460      4.000000
  0.048280 -0.122758  0.014511      4.000000
  0.076678 -0.134034  0.010562      4.000000
  0.105077 -0.145311  0.006613      4.000000
 -0.093713 -0.066376  0.034256      4.000000
 -0.065314 -0.077652  0.030307      4.000000
[...]
  0.063621 -0.107030  0.042025      4.000000
  0.092019 -0.118306  0.038076      2.000000
 -0.039173  0.081013  0.094390      2.000000
 -0.010775  0.069736  0.090441      2.000000
  0.017624  0.058460  0.086492      2.000000
  0.046022  0.047183  0.082543      2.000000
  0.074421  0.035907  0.078594      2.000000
 -0.124369  0.114842  0.106238      2.000000
[...]
     22      -1.4947      1.00000
     23      -1.3612      1.00000
     24      -0.7679      1.00000
     25       0.0022      1.00000
     26       1.6187      0.00000
     27       1.6912      0.00000
     28       1.7297      0.00000
     29       1.9999      0.00000
     30       7.7645      0.00000
     31       7.9743      0.00000
     32       8.9022      0.00000

[...]

 soft charge-density along one line, spin component           1
         0         1         2         3         4         5         6         7         8         9
 total charge-density along one line

[...]

------------------------ aborting loop because EDIFF is reached ----------------------------------------

 total charge

# of ion       s       p       d       tot
    1        2.009   0.037   0.000   2.046
    2        1.610   3.343   0.000   4.953
    3        1.610   3.345   0.000   4.955
    4        1.610   3.253   0.000   4.863
    5        1.609   3.249   0.000   4.858
    6        1.623   3.265   0.000   4.888
    7        1.605   3.304   0.000   4.909
    8        1.616   3.300   0.000   4.916
    9        1.605   3.303   0.000   4.908
tot         14.897  26.399   0.000  41.296

 magnetization (x)

[...]

  FORCE on cell =-STRESS in cart. coord.  units (eV):
  Direction    XX          YY          ZZ          XY          YZ          ZX
  Alpha Z    96.78760    96.78760    96.78760
  Ewald    -412.42709  -843.01145  -915.60697  -194.85888    17.00888   -64.31498
  Hartree   396.47639   442.95854   447.18822    23.20887    -9.02754     7.52013
  E(xc)    -246.67681  -249.17304  -249.54621    -1.13057     0.16395    -0.35473
  Local    -687.51488  -432.06404  -384.37588   112.49346    -0.53243    37.11498
  n-local  -200.23227  -195.21222  -188.28344     1.88705    -1.56419     0.79547
  augment    60.49777    69.28055    70.70098     4.05367    -0.51308     1.36187
  Kinetic   994.42135  1117.72648  1114.36366    57.73723    -2.35070    17.83945
  Fock        0.00000     0.00000     0.00000     0.00000     0.00000     0.00000
  Total      -0.04844    -0.02411    -0.07501    -0.02954    -0.03188    -0.05579
  in kB      -0.76329    -0.37996    -1.18213    -0.46545    -0.50242    -0.87913

 VOLUME and BASIS-vectors are now :
  energy-cutoff  :      520.00
  volume of cell :      101.67
      direct lattice vectors                 reciprocal lattice vectors
     4.680267000  0.030675000  1.916040000     0.227188000 -0.090211688 -0.031592899
     1.982558000  4.453103000  1.541215000    -0.007945853  0.222616075  0.015845164
     0.569716000 -0.340467000  5.069074000    -0.083458049 -0.033586022  0.204398763

[...]

 FORCES acting on ions
    electron-ion (+dipol)            ewald-force                    non-local-force                 convergence-correction
   -.197E+02 0.138E+02 0.109E+02   0.194E+02 -.138E+02 -.109E+02   0.249E+00 -.469E-01 0.358E-01   -.514E-03 0.324E-03 0.234E-03
   0.241E+03 -.121E+03 0.341E+02   -.287E+03 0.135E+03 -.297E+02   0.462E+02 -.139E+02 -.434E+01   0.148E-02 -.606E-03 0.145E-02
   -.255E+03 0.247E+02 0.106E+03   0.302E+03 -.359E+02 -.117E+03   -.468E+02 0.112E+02 0.104E+02   0.404E-02 -.696E-03 -.586E-03
   -.208E+03 0.183E+03 -.997E+01   0.251E+03 -.206E+03 0.884E+01   -.431E+02 0.238E+02 0.110E+01   0.370E-02 -.183E-02 0.251E-03
   0.268E+03 -.288E+02 -.337E+02   -.313E+03 0.463E+02 0.355E+02   0.452E+02 -.175E+02 -.172E+01   0.193E-02 0.917E-03 0.334E-03
   0.239E+03 -.155E+03 -.114E+03   -.288E+03 0.175E+03 0.122E+03   0.488E+02 -.203E+02 -.810E+01   -.230E-02 0.122E-02 0.733E-03
   -.218E+03 0.132E+03 0.927E+02   0.258E+03 -.153E+03 -.105E+03   -.408E+02 0.209E+02 0.120E+02   0.190E-02 -.115E-02 -.801E-03
   -.280E+03 0.324E+02 -.681E+02   0.330E+03 -.466E+02 0.689E+02   -.501E+02 0.142E+02 -.815E+00   -.571E-02 0.225E-02 0.763E-03
   0.232E+03 -.802E+02 -.161E+02   -.273E+03 0.999E+02 0.263E+02   0.414E+02 -.197E+02 -.101E+02   -.120E-02 0.354E-03 -.567E-06
   -.103E+01 0.148E+01 0.160E+01   0.568E-13 -.284E-13 0.426E-13   0.102E+01 -.148E+01 -.160E+01   0.332E-02 0.774E-03 0.238E-02

 POSITION                                       TOTAL-FORCE (eV/Angst)
      4.37049      3.32055      6.26218        -0.037346      0.009572     -0.001950
      5.06954      1.23099      6.28590        -0.032771      0.008738      0.006281
      1.56596      0.80532      4.19453         0.030812     -0.041461     -0.002743
      2.22479      3.04066      2.54942         0.041801     -0.004174     -0.030184
      5.75764      3.56563      4.56771        -0.030764      0.015546      0.001270
      4.57507      1.07781      3.29673        -0.019721      0.011929      0.008311
      2.61123      3.05310      5.19423         0.077872     -0.005446      0.023786
      1.05422      0.63174      1.28058         0.037890     -0.015347     -0.005679
      6.15555      3.58247      7.33295        -0.067774      0.020643      0.000908
    total drift:                               -0.004674      0.002995      0.002198

  FREE ENERGIE OF THE ION-ELECTRON SYSTEM (eV)
  free  energy   TOTEN  =       -44.06553833 eV

  energy  without entropy=      -44.06553833  energy(sigma->0) =      -44.06553833

[...]

 d Force =-0.1411050E-02[-0.394E-02, 0.112E-02]  d Energy =-0.1318434E-02-0.926E-04
 d Force = 0.4936514E+01[ 0.491E+01, 0.496E+01]  d Ewald  = 0.5615941E+01-0.679E+00

 Steepest descent step on ions:
 trial-energy change:    0.001318  1 .order    0.001281   -0.001219    0.003782
  (g-gl).g = 0.122E-02      g.g   = 0.122E-02  gl.gl    = 0.000E+00
 g(Force)  = 0.112E-02   g(Stress)= 0.995E-04 ortho     = 0.000E+00
 gamma     =   0.00000
 trial     =   1.00000
 opt step  =   0.24375  (harmonic =   0.24375) maximal distance =0.00091572
 next E    =   -44.065687   (d E  =  -0.00015)

[...]

 d Force = 0.1541155E-02[ 0.101E-03, 0.298E-02]  d Energy = 0.1460026E-02 0.811E-04
 d Force =-0.3729108E+01[-0.374E+01,-0.371E+01]  d Ewald  =-0.4242784E+01 0.514E+00

[...]

 d Force = 0.9085425E-04[ 0.516E-04, 0.130E-03]  d Energy = 0.4150315E-03-0.324E-03
 d Force = 0.8456303E+00[ 0.844E+00, 0.847E+00]  d Ewald  = 0.1672029E+01-0.826E+00

 Conjugate gradient step on ions:
 trial-energy change:   -0.000415  1 .order   -0.000406   -0.000524   -0.000289
  (g-gl).g = 0.117E-02      g.g   = 0.115E-02  gl.gl    = 0.122E-02
 g(Force)  = 0.408E-03   g(Stress)= 0.738E-03 ortho     =-0.211E-04
 gamma     =   0.95769
 trial     =   0.46523
 opt step  =   1.03682  (harmonic =   1.03682) maximal distance =0.00323404
 next E    =   -44.066264   (d E  =  -0.00058)

[...]

 d Force = 0.5099950E-05[-0.533E-04, 0.635E-04]  d Energy = 0.2401782E-03-0.235E-03
 d Force = 0.1033872E+01[ 0.103E+01, 0.104E+01]  d Ewald  = 0.2049503E+01-0.102E+01

[...]

 Conjugate gradient step on ions:
 trial-energy change:   -0.000319  1 .order   -0.000309   -0.000429   -0.000189
  (g-gl).g = 0.157E-02      g.g   = 0.194E-02  gl.gl    = 0.115E-02
 g(Force)  = 0.179E-02   g(Stress)= 0.155E-03 ortho     = 0.194E-03
 gamma     =   1.36903
 trial     =   0.19396
 opt step  =   0.34708  (harmonic =   0.34708) maximal distance =0.00200422
 next E    =   -44.066719   (d E  =  -0.00038)

[...]

 d Force =-0.3108672E-04[-0.656E-04, 0.342E-05]  d Energy = 0.2441605E-04-0.555E-04
 d Force = 0.7757722E+00[ 0.775E+00, 0.776E+00]  d Ewald  = 0.7874589E+00-0.117E-01

[...]

 Conjugate gradient step on ions:
 trial-energy change:   -0.000076  1 .order   -0.000087   -0.000093   -0.000081
  (g-gl).g = 0.773E-03      g.g   = 0.857E-03  gl.gl    = 0.548E-03
 g(Force)  = 0.601E-03   g(Stress)= 0.255E-03 ortho     = 0.117E-04
 gamma     =   1.41135
 trial     =   0.10674
 opt step  =   0.42695  (harmonic =   0.81884) maximal distance =0.00146358
 next E    =   -44.067214   (d E  =  -0.00036)

[...]

 d Force =-0.1775484E-04[-0.527E-04, 0.172E-04]  d Energy = 0.7700471E-04-0.948E-04
 d Force = 0.1011064E+01[ 0.101E+01, 0.101E+01]  d Ewald  = 0.9146631E+00 0.964E-01

[...]

 Conjugate gradient step on ions:
 trial-energy change:   -0.000060  1 .order   -0.000057   -0.000074   -0.000039
  (g-gl).g = 0.658E-03      g.g   = 0.492E-03  gl.gl    = 0.857E-03
 g(Force)  = 0.454E-03   g(Stress)= 0.379E-04 ortho     =-0.730E-04
 gamma     =   0.76805
 trial     =   0.17078
 opt step  =   0.36130  (harmonic =   0.36130) maximal distance =0.00186916
 next E    =   -44.067088   (d E  =  -0.00008)

 real space projection operators:
  max/ min on nodes  :        382.68        263.64

[...]

 eigenvalue-minimisations  : 13176
 total energy-change (2. order) : 0.1160643E-03  (-0.6276326E-05)
 number of electron      51.0000006 magnetization       0.0000010
 augmentation part        5.5513352 magnetization       0.0000006

 Broyden mixing:
  rms(total) = 0.38134E-02    rms(broyden)= 0.37997E-02
  rms(prec ) = 0.76582E-02
  weight for this iteration     100.00

 eigenvalues of (default mixing * dielectric matrix)
  average eigenvalue GAMMA=   1.0002
  1.7643  0.2361

[...]

--------------------------------------- Iteration     13(   4)  ---------------------------------------

[...]

 eigenvalue-minimisations  :  8546
 total energy-change (2. order) :-0.9250811E-05  (-0.2428250E-05)
 number of electron      51.0000006 magnetization       0.0000010
 augmentation part        5.5513352 magnetization       0.0000006

 Free energy of the ion-electron system (eV)
  alpha Z        PSCENC =        97.41807334
  Ewald energy   TEWEN  =     -2181.93417474
  -Hartree energ DENC   =     -1278.02398179
  -exchange      EXHF   =         0.00000000
  -V(xc)+E(xc)   XCENC  =       234.85783455
  PAW double counting   =      3616.35214177    -3646.47411790
  entropy T*S    EENTRO =         0.00000000
  eigenvalues    EBANDS =      -547.89962218
  atomic energy  EATOM  =      3661.63673913
  Solvation  Ediel_sol  =         0.00000000
  free energy    TOTEN  =       -44.06710783 eV

  energy without entropy =      -44.06710783  energy(sigma->0) =      -44.06710783

 average (electrostatic) potential at core
  the test charge radii are     0.7079  0.7215
  (the norm of the test charge is              1.0000)
       1 -63.2724       2 -77.2676       3 -77.1495       4 -77.1495       5 -77.2676
       6 -77.6385       7 -76.9354       8 -77.5485       9 -76.9982

 E-fermi :   0.9479     XC(G=0):  -9.1680     alpha+bet : -7.4116

[...]

 spin component 2

[...]

 k-point   116 :       0.5000   -0.4286    0.4286
  band No.  band energies     occupation
      1     -44.1899      1.00000
      2     -25.9600      1.00000
      3     -25.0179      1.00000
      4     -24.9540      1.00000
      5     -24.5479      1.00000
      6     -14.3115      1.00000
      7     -13.7742      1.00000
      8     -13.5316      1.00000
      9     -13.0476      1.00000
     10      -7.9449      1.00000
     11      -7.3882      1.00000
     12      -7.2427      1.00000
     13      -6.8801      1.00000
     14      -6.4369      1.00000
     15      -6.1946      1.00000
     16      -5.9246      1.00000
     17      -5.8531      1.00000
     18      -5.1513      1.00000
     19      -5.0392      1.00000
     20      -4.5722      1.00000
     21      -4.2813      1.00000
     22      -0.8114      1.00000
     23      -0.5960      1.00000
     24      -0.0271      1.00000
     25       0.0751      1.00000
     26       0.6798      1.00000
     27       0.9253      0.12931
     28       1.3165      0.00000
     29       1.7478      0.00000
     30       7.3913      0.00000
     31       8.3668      0.00000
     32       8.6724      0.00000

[...]

 soft charge-density along one line, spin component           2
         0         1         2         3         4         5         6         7         8         9
 total charge-density along one line

------------------------ aborting loop because EDIFF is reached ----------------------------------------

[...]

  FORCE on cell =-STRESS in cart. coord.  units (eV):
  Direction    XX          YY          ZZ          XY          YZ          ZX
  Alpha Z    97.41807    97.41807    97.41807
  Ewald    -404.73750  -852.03158  -925.16846  -201.54414    19.80416   -65.09384
  Hartree   403.16618   435.69749   439.15443    17.32163    -6.80001     6.45918
  E(xc)    -246.69477  -249.19661  -249.56865    -1.13152     0.16528    -0.35327
  Local    -702.52948  -416.41390  -367.42201   125.09305    -5.59724    38.97434
  n-local  -200.41098  -195.37388  -188.46308     1.86386    -1.56918     0.75714
  augment    60.43273    69.22305    70.64988     4.05824    -0.50776     1.36629
  Kinetic   994.74469  1118.07028  1114.69612    57.75639    -2.28275    17.90781
  Fock        0.00000     0.00000     0.00000     0.00000     0.00000     0.00000
  Total       0.01363     0.03877     0.02579     0.00041    -0.01252    -0.01325
  in kB       0.21613     0.61493     0.40903     0.00657    -0.19860    -0.21013

 VOLUME and BASIS-vectors are now :
  energy-cutoff  :      520.00
  volume of cell :      101.01
      direct lattice vectors                 reciprocal lattice vectors
     4.650144736  0.034740598  1.909500832     0.228664863 -0.090589511 -0.031514820
     1.975812773  4.454813266  1.530695718    -0.008319256  0.222596318  0.016209793
     0.560269033 -0.347923359  5.065300956    -0.083687327 -0.033116785  0.204403514

  length of vectors
     5.027051462  5.108055083  5.108054994     0.247966254  0.223340745  0.223340741

 FORCES acting on ions
    electron-ion (+dipol)            ewald-force                    non-local-force                 convergence-correction
   -.227E+02 0.150E+02 0.113E+02   0.223E+02 -.149E+02 -.114E+02   0.349E+00 -.780E-01 0.337E-01   0.248E-02 -.114E-02 -.554E-03
   0.238E+03 -.122E+03 0.339E+02   -.285E+03 0.137E+03 -.295E+02   0.462E+02 -.142E+02 -.437E+01   0.250E-02 0.878E-03 -.145E-01
   -.254E+03 0.218E+02 0.106E+03   0.300E+03 -.331E+02 -.117E+03   -.468E+02 0.113E+02 0.104E+02   -.453E-02 0.158E-02 -.590E-02
   -.206E+03 0.183E+03 -.124E+02   0.249E+03 -.207E+03 0.112E+02   -.431E+02 0.238E+02 0.124E+01   -.619E-02 -.405E-02 -.176E-02
   0.266E+03 -.277E+02 -.357E+02   -.312E+03 0.452E+02 0.377E+02   0.453E+02 -.174E+02 -.201E+01   -.194E-02 -.142E-01 -.338E-02
   0.238E+03 -.154E+03 -.114E+03   -.287E+03 0.175E+03 0.123E+03   0.487E+02 -.204E+02 -.818E+01   0.326E-02 -.104E-02 -.105E-03
   -.214E+03 0.133E+03 0.947E+02   0.255E+03 -.154E+03 -.107E+03   -.408E+02 0.207E+02 0.118E+02   -.298E-01 0.117E-01 0.396E-02
   -.278E+03 0.315E+02 -.685E+02   0.328E+03 -.456E+02 0.693E+02   -.500E+02 0.142E+02 -.745E+00   0.346E-01 -.143E-01 -.558E-02
   0.230E+03 -.779E+02 -.135E+02   -.272E+03 0.973E+02 0.234E+02   0.414E+02 -.194E+02 -.983E+01   0.124E-01 -.434E-02 -.918E-03
   -.138E+01 0.165E+01 0.169E+01   0.000E+00 0.142E-13 0.711E-14   0.136E+01 -.163E+01 -.167E+01   0.128E-01 -.249E-01 -.287E-01

 POSITION                                       TOTAL-FORCE (eV/Angst)
      4.33255      3.32083      6.24737         0.010879      0.000891      0.005567
      5.03041      1.22767      6.27330        -0.024949     -0.007032      0.006714
      1.55502      0.79259      4.18851         0.018230     -0.001787     -0.001964
      2.21803      3.04208      2.53298         0.016408     -0.007967      0.002583
      5.72053      3.56916      4.55007        -0.017953      0.016704     -0.010754
      4.54656      1.08159      3.29046         0.001611      0.000924      0.001901
      2.60134      3.05260      5.18958        -0.029721      0.001078     -0.010438
      1.05546      0.62984      1.27850         0.010461     -0.002741      0.000465
      6.11088      3.58184      7.31421         0.015034     -0.000070      0.005926
    total drift:                               -0.004192     -0.002057     -0.004475

  FREE ENERGIE OF THE ION-ELECTRON SYSTEM (eV)
  free  energy   TOTEN  =       -44.06710783 eV

  energy  without entropy=      -44.06710783  energy(sigma->0) =      -44.06710783

 d Force = 0.2140734E-04[ 0.779E-05, 0.350E-04]  d Energy = 0.3856280E-04-0.172E-04
 d Force = 0.6591134E+00[ 0.659E+00, 0.660E+00]  d Ewald  = 0.5075398E+00 0.152E+00

 reached required accuracy - stopping structural energy minimisation

 total charge

[...]

 magnetization (x)

# of ion       s       p       d       tot
    1       -0.000  -0.000   0.000  -0.000
    2       -0.000  -0.000   0.000  -0.000
    3       -0.000  -0.000   0.000  -0.000
    4       -0.000  -0.000   0.000  -0.000
    5       -0.000  -0.000   0.000  -0.000
    6        0.000   0.000   0.000   0.000
    7        0.000   0.000   0.000   0.000
    8       -0.000   0.000   0.000   0.000
    9        0.000   0.000   0.000   0.000
tot         -0.000   0.000   0.000   0.000

 BZINTS: Fermi energy:  0.947877; 51.000000 electrons
         Band energy:-547.899622;  BLOECHL correction: -0.025128