 vasp.5.4.4.18Apr17-6-g9f103f2a35 (build Aug 12 2020 11:57:02) complex

 executed on             LinuxIFC date 2021.02.02  18:40:22

 INCAR:
 POTCAR:    PAW_PBE Li_sv 10Sep2004
 POTCAR:    PAW_PBE P 06Sep2000
 POTCAR:    PAW_PBE Li_sv 10Sep2004
   VRHFIN =Li: 1s2s2p

   TITEL  = PAW_PBE Li_sv 10Sep2004
   POMASS =    7.010; ZVAL   =    3.000    mass and valenz
   ENMAX  =  499.034; ENMIN  =  374.276 eV

 POTCAR:    PAW_PBE P 06Sep2000
   VRHFIN =P : s2p3

   TITEL  = PAW_PBE P 06Sep2000
   POMASS =   30.974; ZVAL   =    5.000    mass and valenz
   ENMAX  =  255.040; ENMIN  =  191.280 eV

 Optimization of the real space projectors (new method)

 maximal supplied QI-value         = 22.11
 optimisation between [QCUT,QGAM] = [ 11.50, 23.22] = [ 37.02,150.92] Ry
 Optimized for a Real-space Cutoff    1.08 Angstroem

   l    n(q)    QCUT    max X(q) W(low)/X(q) W(high)/X(q)  e(spline)
   0      7    11.497    10.506    0.36E-04    0.62E-04    0.14E-07
   0      7    11.497     8.367    0.65E-04    0.14E-03    0.28E-07
   1      7    11.497     8.983    0.21E-03    0.43E-03    0.90E-07
 Optimization of the real space projectors (new method)

 maximal supplied QI-value         = 19.84
 optimisation between [QCUT,QGAM] = [ 11.51, 23.22] = [ 37.09,150.92] Ry
 Optimized for a Real-space Cutoff    1.21 Angstroem

   l    n(q)    QCUT    max X(q) W(low)/X(q) W(high)/X(q)  e(spline)
   0      8    11.508   160.924    0.96E-04    0.17E-03    0.52E-07
   0      8    11.508   130.086    0.95E-04    0.17E-03    0.51E-07
   1      8    11.508    74.434    0.16E-03    0.74E-04    0.91E-07
   1      8    11.508    49.120    0.16E-03    0.71E-04    0.89E-07
  PAW_PBE Li_sv 10Sep2004               :
  PAW_PBE P 06Sep2000                   :

 POSCAR: Li8 P8
  positions in direct lattice
 exchange correlation table for  LEXCH =        8
   RHO(1)=    0.500       N(1)  =     2000
   RHO(2)=  100.500       N(2)  =     4000

 ion  position               nearest neighbor table
   1  0.612  0.217  0.671-   9 2.58  10 2.64   9 2.64  16 2.71  13 2.75
   2  0.112  0.783  0.829-  10 2.58   9 2.64  10 2.64  15 2.71  14 2.75
   3  0.388  0.783  0.329-  11 2.58  12 2.64  11 2.64  14 2.71  15 2.75
   4  0.888  0.217  0.171-  12 2.58  11 2.64  12 2.64  13 2.71  16 2.75
   5  0.342  0.226  0.970-  13 2.58  13 2.60  10 2.68  12 2.72   9 2.76  15 2.77
   6  0.842  0.774  0.530-  14 2.58  14 2.60   9 2.68  11 2.72  10 2.76  16 2.77
   7  0.658  0.774  0.030-  15 2.58  15 2.60  12 2.68  10 2.72  11 2.76  13 2.77
   8  0.158  0.226  0.470-  16 2.58  16 2.60  11 2.68   9 2.72  12 2.76  14 2.77
   9  0.105  0.317  0.707-  14 2.22  13 2.24   1 2.58   2 2.64   1 2.64   6 2.68   8 2.72   5 2.76

  10  0.605  0.683  0.793-  13 2.22  14 2.24   2 2.58   1 2.64   2 2.64   5 2.68   7 2.72   6 2.76

[...]

  13  0.844  0.303  0.888-  10 2.22   9 2.24   5 2.58   5 2.60   4 2.71   1 2.75   7 2.77
  14  0.344  0.697  0.612-   9 2.22  10 2.24   6 2.58   6 2.60   3 2.71   2 2.75   8 2.77
  15  0.156  0.697  0.112-  12 2.22  11 2.24   7 2.58   7 2.60   2 2.71   3 2.75   5 2.77
  16  0.656  0.303  0.388-  11 2.22  12 2.24   8 2.58   8 2.60   1 2.71   4 2.75   6 2.77

  LATTYP: Found a simple monoclinic cell.
 ALAT       =    10.2507507637
 B/A-ratio  =     0.4848800946
 C/A-ratio  =     1.3463992353
 COS(beta)  =    -0.9339720243

  Lattice vectors:

 A1 = (   0.0000000000,  -4.8369850000,  -9.0377800000)
 A2 = (  -4.9703850000,   0.0000000000,   0.0000000000)
 A3 = (   0.0000000000,  10.4308570000,   9.0377800000)

Analysis of symmetry for initial positions (statically):
 Subroutine PRICEL returns:
 Original cell was already a primitive cell.

 Routine SETGRP: Setting up the symmetry group for a
 simple monoclinic supercell.

 Subroutine GETGRP returns: Found  4 space group operations
 (whereof  2 operations were pure point group operations)
 out of a pool of  4 trial point group operations.

The static configuration has the point symmetry S_2 .
 The point group associated with its full space group is C_2h.

Analysis of symmetry for dynamics (positions and initial velocities):
 Subroutine PRICEL returns:
 Original cell was already a primitive cell.

[...]

The dynamic configuration has the point symmetry S_2 .
 The point group associated with its full space group is C_2h.

Analysis of structural, dynamic, and magnetic symmetry:
 Subroutine PRICEL returns:
 Original cell was already a primitive cell.

 Routine SETGRP: Setting up the symmetry group for a
 simple monoclinic supercell.

 Subroutine GETGRP returns: Found  4 space group operations
 (whereof  2 operations were pure point group operations)
 out of a pool of  4 trial point group operations.

The magnetic configuration has the point symmetry S_2 .
 The point group associated with its full space group is C_2h.

 Subroutine INISYM returns: Found  4 space group operations
 (whereof  2 operations are pure point group operations),
 and found     1 'primitive' translations

 KPOINTS: Fully automatic kpoint scheme

Automatic generation of k-mesh.
 generate k-points for:    6    6    4
Space group operators:
 irot       det(A)        alpha          n_x          n_y          n_z        tau_x        tau_y        tau_z
    1     1.000000     0.000000     1.000000     0.000000     0.000000     0.000000     0.000000     0.000000
    2    -1.000000     0.000000     1.000000     0.000000     0.000000     0.000000     0.000000     0.000000
    3     1.000000   180.000000     1.000000     0.000000     0.000000    -0.500000     0.000000    -0.500000
    4    -1.000000   180.000000     1.000000     0.000000     0.000000    -0.500000     0.000000    -0.500000

 Subroutine IBZKPT returns following result:

 Found     56 irreducible k-points:

 Following reciprocal coordinates:
            Coordinates               Weight
  0.000000  0.000000  0.000000      1.000000
  0.166667  0.000000  0.000000      2.000000
  0.333333  0.000000  0.000000      2.000000
  0.500000  0.000000  0.000000      1.000000
  0.000000  0.166667  0.000000      2.000000
  0.166667  0.166667  0.000000      4.000000
  0.333333  0.166667  0.000000      4.000000
  0.500000  0.166667  0.000000      2.000000
  0.000000  0.333333 -0.000000      2.000000
  0.166667  0.333333 -0.000000      4.000000
  0.333333  0.333333 -0.000000      4.000000
  0.500000  0.333333 -0.000000      2.000000
  0.000000  0.500000  0.000000      1.000000
  0.166667  0.500000  0.000000      2.000000
  0.333333  0.500000  0.000000      2.000000
  0.500000  0.500000  0.000000      1.000000
  0.000000  0.000000  0.250000      2.000000
  0.166667  0.000000  0.250000      4.000000
  0.333333  0.000000  0.250000      4.000000
  0.500000  0.000000  0.250000      2.000000
  0.000000  0.166667  0.250000      2.000000
  0.166667  0.166667  0.250000      4.000000
  0.333333  0.166667  0.250000      4.000000
  0.500000  0.166667  0.250000      2.000000
  0.000000  0.333333  0.250000      2.000000
  0.166667  0.333333  0.250000      4.000000
  0.333333  0.333333  0.250000      4.000000
  0.500000  0.333333  0.250000      2.000000
  0.000000  0.500000  0.250000      2.000000
  0.166667  0.500000  0.250000      4.000000
  0.333333  0.500000  0.250000      4.000000
  0.500000  0.500000  0.250000      2.000000
  0.000000 -0.333333  0.250000      2.000000
  0.166667 -0.333333  0.250000      4.000000
  0.333333 -0.333333  0.250000      4.000000
  0.500000 -0.333333  0.250000      2.000000
  0.000000 -0.166667  0.250000      2.000000
  0.166667 -0.166667  0.250000      4.000000
  0.333333 -0.166667  0.250000      4.000000
  0.500000 -0.166667  0.250000      2.000000
  0.000000  0.000000  0.500000      1.000000
  0.166667  0.000000  0.500000      2.000000
  0.333333  0.000000  0.500000      2.000000
  0.500000  0.000000  0.500000      1.000000
  0.000000  0.166667  0.500000      2.000000
  0.166667  0.166667  0.500000      4.000000
  0.333333  0.166667  0.500000      4.000000
  0.500000  0.166667  0.500000      2.000000
  0.000000  0.333333  0.500000      2.000000
  0.166667  0.333333  0.500000      4.000000
  0.333333  0.333333  0.500000      4.000000
  0.500000  0.333333  0.500000      2.000000
  0.000000  0.500000  0.500000      1.000000
  0.166667  0.500000  0.500000      2.000000
  0.333333  0.500000  0.500000      2.000000
  0.500000  0.500000  0.500000      1.000000

 Following cartesian coordinates:
            Coordinates               Weight
  0.000000  0.000000  0.000000      1.000000
  0.033532  0.000000  0.000000      2.000000
  0.067064  0.000000  0.000000      2.000000
  0.100596  0.000000  0.000000      1.000000
  0.000000  0.029795 -0.015946      2.000000
  0.033532  0.029795 -0.015946      4.000000
  0.067064  0.029795 -0.015946      4.000000
  0.100596  0.029795 -0.015946      2.000000
  0.000000  0.059589 -0.031892      2.000000
  0.033532  0.059589 -0.031892      4.000000
  0.067064  0.059589 -0.031892      4.000000
  0.100596  0.059589 -0.031892      2.000000
  0.000000  0.089384 -0.047838      1.000000
  0.033532  0.089384 -0.047838      2.000000
  0.067064  0.089384 -0.047838      2.000000
  0.100596  0.089384 -0.047838      1.000000
  0.000000  0.000000  0.027662      2.000000
  0.033532  0.000000  0.027662      4.000000
  0.067064  0.000000  0.027662      4.000000
  0.100596  0.000000  0.027662      2.000000
  0.000000  0.029795  0.011716      2.000000
  0.033532  0.029795  0.011716      4.000000
  0.067064  0.029795  0.011716      4.000000
  0.100596  0.029795  0.011716      2.000000
  0.000000  0.059589 -0.004230      2.000000
  0.033532  0.059589 -0.004230      4.000000
  0.067064  0.059589 -0.004230      4.000000
  0.100596  0.059589 -0.004230      2.000000
  0.000000  0.089384 -0.020176      2.000000
  0.033532  0.089384 -0.020176      4.000000
  0.067064  0.089384 -0.020176      4.000000
  0.100596  0.089384 -0.020176      2.000000
  0.000000 -0.059589  0.059553      2.000000
  0.033532 -0.059589  0.059553      4.000000
  0.067064 -0.059589  0.059553      4.000000
  0.100596 -0.059589  0.059553      2.000000
  0.000000 -0.029795  0.043608      2.000000
  0.033532 -0.029795  0.043608      4.000000
  0.067064 -0.029795  0.043608      4.000000
  0.100596 -0.029795  0.043608      2.000000
  0.000000  0.000000  0.055323      1.000000
  0.033532  0.000000  0.055323      2.000000
  0.067064  0.000000  0.055323      2.000000
  0.100596  0.000000  0.055323      1.000000
  0.000000  0.029795  0.039377      2.000000
  0.033532  0.029795  0.039377      4.000000
  0.067064  0.029795  0.039377      4.000000
  0.100596  0.029795  0.039377      2.000000
  0.000000  0.059589  0.023432      2.000000
  0.033532  0.059589  0.023432      4.000000
  0.067064  0.059589  0.023432      4.000000
  0.100596  0.059589  0.023432      2.000000
  0.000000  0.089384  0.007486      1.000000
  0.033532  0.089384  0.007486      2.000000
  0.067064  0.089384  0.007486      2.000000
  0.100596  0.089384  0.007486      1.000000

 TETIRR: Found    432 inequivalent tetrahedra from      864

 SYSTEM =  unknown system
 POSCAR =  Li8 P8

 Startparameter for this run:
   NWRITE =      2    write-flag & timer
   PREC   = accura    normal or accurate (medium, high low for compatibility)
[...]
   0.147E+01 -.113E+02 -.249E+01   -.115E+01 0.113E+02 0.249E+01   -.312E+00 0.326E-03 -.158E-02   0.135E-04 -.815E-03 -.195E-03
   -.147E+01 -.113E+02 -.249E+01   0.115E+01 0.113E+02 0.249E+01   0.312E+00 0.326E-03 -.158E-02   -.135E-04 -.815E-03 -.195E-03
   -.147E+01 0.113E+02 0.249E+01   0.115E+01 -.113E+02 -.249E+01   0.312E+00 -.326E-03 0.158E-02   -.135E-04 0.815E-03 0.195E-03
   -.191E+01 0.611E+01 -.140E+02   0.174E+01 -.601E+01 0.137E+02   0.170E+00 -.920E-01 0.244E+00   0.111E-03 0.380E-03 -.731E-03
   -.191E+01 -.611E+01 0.140E+02   0.174E+01 0.601E+01 -.137E+02   0.170E+00 0.920E-01 -.244E+00   0.111E-03 -.380E-03 0.731E-03
   0.191E+01 -.611E+01 0.140E+02   -.174E+01 0.601E+01 -.137E+02   -.170E+00 0.920E-01 -.244E+00   -.111E-03 -.380E-03 0.731E-03
   0.191E+01 0.611E+01 -.140E+02   -.174E+01 -.601E+01 0.137E+02   -.170E+00 -.920E-01 0.244E+00   -.111E-03 0.380E-03 -.731E-03
   -.311E+01 0.401E+02 0.919E+01   0.292E+01 -.449E+02 -.112E+02   0.181E+00 0.475E+01 0.200E+01   -.204E-04 0.202E-02 0.243E-03
   -.311E+01 -.401E+02 -.919E+01   0.292E+01 0.449E+02 0.112E+02   0.181E+00 -.475E+01 -.200E+01   -.204E-04 -.202E-02 -.243E-03
   0.311E+01 -.401E+02 -.919E+01   -.292E+01 0.449E+02 0.112E+02   -.181E+00 -.475E+01 -.200E+01   0.204E-04 -.202E-02 -.243E-03
   0.311E+01 0.401E+02 0.919E+01   -.292E+01 -.449E+02 -.112E+02   -.181E+00 0.475E+01 0.200E+01   0.204E-04 0.202E-02 0.243E-03
   0.208E+01 0.157E+02 -.375E+02   -.223E+01 -.170E+02 0.427E+02   0.157E+00 0.128E+01 -.511E+01   -.693E-05 0.101E-02 -.199E-02
   0.208E+01 -.157E+02 0.375E+02   -.223E+01 0.170E+02 -.427E+02   0.157E+00 -.128E+01 0.511E+01   -.693E-05 -.101E-02 0.199E-02
   -.208E+01 -.157E+02 0.375E+02   0.223E+01 0.170E+02 -.427E+02   -.157E+00 -.128E+01 0.511E+01   0.693E-05 -.101E-02 0.199E-02
   -.208E+01 0.157E+02 -.375E+02   0.223E+01 -.170E+02 0.427E+02   -.157E+00 0.128E+01 -.511E+01   0.693E-05 0.101E-02 -.199E-02
   -.172E-09 -.600E-10 -.118E-09   -.355E-14 0.355E-14 -.711E-14   0.278E-16 -.666E-15 -.888E-15   -.178E-13 0.276E-13 -.111E-13

 POSITION                                       TOTAL-FORCE (eV/Angst)
      3.04065      4.45808      6.06164         0.007002      0.003812      0.007079
      0.55546      8.39127      7.49503         0.007002     -0.003812     -0.007079
      1.92974      5.97278      2.97614        -0.007002     -0.003812     -0.007079
      4.41493      2.03959      1.54275        -0.007002      0.003812      0.007079
      1.69830      5.95583      8.76858        -0.003386      0.002987     -0.012407
      4.18349      6.89352      4.78809        -0.003386     -0.002987      0.012407
      3.27208      4.47503      0.26920         0.003386     -0.002987      0.012407
      0.78689      3.53734      4.24969         0.003386      0.002987     -0.012407
      0.52237      5.19143      6.39047        -0.009650     -0.009135     -0.002584
      3.00756      7.65792      7.16620        -0.009650      0.009135      0.002584
      4.44802      5.23943      2.64731         0.009650      0.009135      0.002584
      1.96282      2.77293      1.87158         0.009650     -0.009135     -0.002584
      4.19487      5.99245      8.02788         0.001846     -0.000319      0.012649
      1.70968      6.85690      5.52879         0.001846      0.000319     -0.012649
      0.77551      4.43841      1.00990        -0.001846      0.000319     -0.012649
      3.26071      3.57396      3.50899        -0.001846     -0.000319      0.012649
    total drift:                               -0.000000     -0.000000     -0.000000

  FREE ENERGIE OF THE ION-ELECTRON SYSTEM (eV)
  free  energy   TOTEN  =       -67.03960861 eV

  energy  without entropy=      -67.03960861  energy(sigma->0) =      -67.03960861

[...]

 eigenvalue-minimisations  :  6749
 total energy-change (2. order) : 0.8498712E-05  ( 0.7120727E-06)
 number of electron      64.0000020 magnetization      -0.0000000
 augmentation part        3.5760251 magnetization      -0.0000007

[...]

 d Force = 0.1394006E-03[ 0.156E-03, 0.122E-03]  d Energy = 0.7313121E-03-0.592E-03
 d Force = 0.1328158E+00[ 0.133E+00, 0.133E+00]  d Ewald  = 0.2005930E+01-0.187E+01

 Steepest descent step on ions:
 trial-energy change:   -0.000731  1 .order   -0.000772   -0.001065   -0.000479
  (g-gl).g = 0.107E-02      g.g   = 0.107E-02  gl.gl    = 0.000E+00
 g(Force)  = 0.122E-03   g(Stress)= 0.943E-03 ortho     = 0.000E+00
 gamma     =   0.00000
 trial     =   1.00000
 opt step  =   1.81659  (harmonic =   1.81659) maximal distance =0.00110849
 next E    =   -67.040576   (d E  =  -0.00097)

[...]

 Conjugate gradient step on ions:
 trial-energy change:   -0.000226  1 .order   -0.000295   -0.000566   -0.000023
  (g-gl).g = 0.557E-03      g.g   = 0.511E-03  gl.gl    = 0.107E-02
 g(Force)  = 0.425E-03   g(Stress)= 0.858E-04 ortho     =-0.458E-04
 gamma     =   0.52247
 trial     =   1.16332
 opt step  =   1.21288  (harmonic =   1.21288) maximal distance =0.00225526
 next E    =   -67.040743   (d E  =  -0.00030)

[...]

 d Force = 0.2419841E-05[ 0.186E-05, 0.298E-05]  d Energy = 0.1189849E-04-0.948E-05
 d Force = 0.3019243E-01[ 0.302E-01, 0.302E-01]  d Ewald  = 0.4898313E-01-0.188E-01

[...]

 d Force = 0.2652236E-04[ 0.260E-04, 0.270E-04]  d Energy = 0.5755091E-04-0.310E-04
 d Force =-0.4355343E-01[-0.436E-01,-0.435E-01]  d Ewald  =-0.5164439E+00 0.473E+00

 Conjugate gradient step on ions:
 trial-energy change:   -0.000058  1 .order   -0.000055   -0.000075   -0.000035
  (g-gl).g =-0.606E-05      g.g   = 0.639E-04  gl.gl    = 0.511E-03
 g(Force)  = 0.235E-04   g(Stress)= 0.405E-04 ortho     =-0.138E-04
 gamma     =  -0.01185
 trial     =   1.17323
 opt step  =   2.22178  (harmonic =   2.22178) maximal distance =0.00077977
 next E    =   -67.040757   (d E  =  -0.00007)

 real space projection operators:
  max/ min on nodes  :        494.25        410.34

[...]

 eigenvalue-minimisations  : 10268
 total energy-change (2. order) :-0.3320856E-04  (-0.4701053E-03)
 number of electron      64.0000019 magnetization       0.0000000
 augmentation part        3.5756202 magnetization       0.0000006

[...]

 eigenvalue-minimisations  : 12319
 total energy-change (2. order) : 0.4541032E-05  (-0.1080713E-04)
 number of electron      64.0000019 magnetization      -0.0000000
 augmentation part        3.5744641 magnetization      -0.0000001

 Broyden mixing:
  rms(total) = 0.94490E-03    rms(broyden)= 0.94339E-03
  rms(prec ) = 0.10442E-02
  weight for this iteration     100.00

 eigenvalues of (default mixing * dielectric matrix)
  average eigenvalue GAMMA=   1.4026
  0.8927  1.9125

[...]

--------------------------------------- Iteration      7(   4)  ---------------------------------------

[...]

 eigenvalue-minimisations  :  6197
 total energy-change (2. order) : 0.2450731E-05  ( 0.1042252E-06)
 number of electron      64.0000019 magnetization      -0.0000000
 augmentation part        3.5744641 magnetization      -0.0000001

 Free energy of the ion-electron system (eV)
  alpha Z        PSCENC =        56.74286045
  Ewald energy   TEWEN  =     -2106.70376586
  -Hartree energ DENC   =      -412.84755583
  -exchange      EXHF   =         0.00000000
  -V(xc)+E(xc)   XCENC  =       128.40980882
  PAW double counting   =      4832.83659764    -4894.26235288
  entropy T*S    EENTRO =         0.00000000
  eigenvalues    EBANDS =      -701.73469372
  atomic energy  EATOM  =      3030.51834690
  Solvation  Ediel_sol  =         0.00000000
  free energy    TOTEN  =       -67.04075449 eV

  energy without entropy =      -67.04075449  energy(sigma->0) =      -67.04075449

 average (electrostatic) potential at core
  the test charge radii are     0.7079  0.9587
  (the norm of the test charge is              1.0000)
       1 -60.6126       2 -60.6126       3 -60.6126       4 -60.6126       5 -60.6330
       6 -60.6330       7 -60.6330       8 -60.6330       9 -83.8621      10 -83.8621
      11 -83.8621      12 -83.8621      13 -83.9670      14 -83.9670      15 -83.9670
      16 -83.9670

 E-fermi :   4.7844     XC(G=0):  -9.2199     alpha+bet :-11.8442

[...]

 spin component 2

[...]

 k-point    56 :       0.5000    0.5000    0.5000
  band No.  band energies     occupation
      1     -41.5559      1.00000
      2     -41.5559      1.00000
      3     -41.5475      1.00000
      4     -41.5475      1.00000
      5     -41.5309      1.00000
      6     -41.5309      1.00000
      7     -41.5309      1.00000
      8     -41.5309      1.00000
      9      -7.9566      1.00000
     10      -7.9566      1.00000
     11      -7.7615      1.00000
     12      -7.7615      1.00000
     13      -4.1210      1.00000
     14      -4.1210      1.00000
     15      -3.9655      1.00000
     16      -3.9655      1.00000
     17      -0.4514      1.00000
     18      -0.4514      1.00000
     19      -0.1676      1.00000
     20      -0.1676      1.00000
     21       0.9892      1.00000
     22       0.9892      1.00000
     23       1.0884      1.00000
     24       1.0884      1.00000
     25       3.0939      1.00000
     26       3.0939      1.00000
     27       3.1112      1.00000
     28       3.1112      1.00000
     29       3.7005      1.00000
     30       3.7005      1.00000
     31       3.7653      1.00000
     32       3.7653      1.00000
     33       6.6612      0.00000
     34       6.6612      0.00000
     35       7.0650      0.00000
     36       7.0650      0.00000
     37       7.5417      0.00000
     38       7.5417      0.00000
     39       7.5769      0.00000
     40       7.5769      0.00000
     41       8.6126      0.00000
     42       8.6126      0.00000
     43       8.9578      0.00000
     44       8.9578      0.00000

[...]

 soft charge-density along one line, spin component           2
         0         1         2         3         4         5         6         7         8         9
 total charge-density along one line

------------------------ aborting loop because EDIFF is reached ----------------------------------------

[...]

  FORCE on cell =-STRESS in cart. coord.  units (eV):
  Direction    XX          YY          ZZ          XY          YZ          ZX
  Alpha Z    56.74286    56.74286    56.74286
  Ewald    -616.65184  -747.03730  -743.01944    -0.00000    -7.13858     0.00000
  Hartree   179.01041   113.26739   120.57913    -0.00000     0.55061    -0.00000
  E(xc)    -243.61034  -243.71463  -243.70798    -0.00000    -0.04594     0.00000
  Local    -472.90820  -278.12875  -291.23876    -0.00000     5.63257     0.00000
  n-local   327.37945   327.48551   326.88628    -0.41511    -0.03357     0.21096
  augment    61.39276    61.76774    61.73037    -0.00000    -0.07196    -0.00000
  Kinetic   708.60418   709.58119   711.96920    -0.93161     1.10372    -0.48674
  Fock        0.00000     0.00000     0.00000     0.00000     0.00000     0.00000
  Total      -0.04074    -0.03598    -0.05832     0.00000    -0.00315     0.00000
  in kB      -0.26089    -0.23045    -0.37350     0.00000    -0.02017     0.00000

 VOLUME and BASIS-vectors are now :
  energy-cutoff  :      520.00
  volume of cell :      250.17
      direct lattice vectors                 reciprocal lattice vectors
     4.957430222  0.000000000  0.000000000     0.201717413  0.000000000  0.000000000
     0.000000000  5.588556033  0.000781117     0.000000000  0.178950486 -0.095784844
     0.000000000  4.833650452  9.030490256     0.000000000 -0.000015479  0.110744244

  length of vectors
     4.957430222  5.588556088 10.242750165     0.201717413  0.202972936  0.110744245

 FORCES acting on ions
    electron-ion (+dipol)            ewald-force                    non-local-force                 convergence-correction
   0.158E+01 0.113E+02 0.251E+01   -.125E+01 -.113E+02 -.250E+01   -.325E+00 -.427E-02 -.763E-03   -.978E-04 0.962E-03 0.495E-03
   0.158E+01 -.113E+02 -.251E+01   -.125E+01 0.113E+02 0.250E+01   -.325E+00 0.427E-02 0.763E-03   -.978E-04 -.962E-03 -.495E-03
   -.158E+01 -.113E+02 -.251E+01   0.125E+01 0.113E+02 0.250E+01   0.325E+00 0.427E-02 0.763E-03   0.978E-04 -.962E-03 -.495E-03
   -.158E+01 0.113E+02 0.251E+01   0.125E+01 -.113E+02 -.250E+01   0.325E+00 -.427E-02 -.763E-03   0.978E-04 0.962E-03 0.495E-03
   -.191E+01 0.611E+01 -.140E+02   0.173E+01 -.602E+01 0.138E+02   0.174E+00 -.929E-01 0.253E+00   -.114E-03 0.269E-03 -.880E-03
   -.191E+01 -.611E+01 0.140E+02   0.173E+01 0.602E+01 -.138E+02   0.174E+00 0.929E-01 -.253E+00   -.114E-03 -.269E-03 0.880E-03
   0.191E+01 -.611E+01 0.140E+02   -.173E+01 0.602E+01 -.138E+02   -.174E+00 0.929E-01 -.253E+00   0.114E-03 -.269E-03 0.880E-03
   0.191E+01 0.611E+01 -.140E+02   -.173E+01 -.602E+01 0.138E+02   -.174E+00 -.929E-01 0.253E+00   0.114E-03 0.269E-03 -.880E-03
   -.320E+01 0.400E+02 0.917E+01   0.299E+01 -.447E+02 -.112E+02   0.201E+00 0.478E+01 0.201E+01   0.879E-04 0.228E-02 0.103E-02
   -.320E+01 -.400E+02 -.917E+01   0.299E+01 0.447E+02 0.112E+02   0.201E+00 -.478E+01 -.201E+01   0.879E-04 -.228E-02 -.103E-02
   0.320E+01 -.400E+02 -.917E+01   -.299E+01 0.447E+02 0.112E+02   -.201E+00 -.478E+01 -.201E+01   -.879E-04 -.228E-02 -.103E-02
   0.320E+01 0.400E+02 0.917E+01   -.299E+01 -.447E+02 -.112E+02   -.201E+00 0.478E+01 0.201E+01   -.879E-04 0.228E-02 0.103E-02
   0.208E+01 0.156E+02 -.374E+02   -.223E+01 -.169E+02 0.425E+02   0.150E+00 0.128E+01 -.514E+01   0.199E-03 0.683E-03 -.258E-02
   0.208E+01 -.156E+02 0.374E+02   -.223E+01 0.169E+02 -.425E+02   0.150E+00 -.128E+01 0.514E+01   0.199E-03 -.683E-03 0.258E-02
   -.208E+01 -.156E+02 0.374E+02   0.223E+01 0.169E+02 -.425E+02   -.150E+00 -.128E+01 0.514E+01   -.199E-03 -.683E-03 0.258E-02
   -.208E+01 0.156E+02 -.374E+02   0.223E+01 -.169E+02 0.425E+02   -.150E+00 0.128E+01 -.514E+01   -.199E-03 0.683E-03 -.258E-02
   -.171E-09 -.578E-10 -.112E-09   -.888E-15 -.107E-13 -.355E-13   0.111E-15 -.222E-15 0.000E+00   0.524E-13 -.326E-12 -.647E-12

 POSITION                                       TOTAL-FORCE (eV/Angst)
      3.03360      4.45543      6.05867        -0.001244      0.002275      0.006316
      0.55489      8.38361      7.48784        -0.001244     -0.002275     -0.006316
      1.92383      5.96678      2.97260         0.001244     -0.002275     -0.006316
      4.40254      2.03860      1.54343         0.001244      0.002275      0.006316
      1.69351      5.95160      8.75899        -0.000410     -0.001003     -0.007751
      4.17222      6.88743      4.78753        -0.000410      0.001003      0.007751
      3.26392      4.47061      0.27228         0.000410      0.001003      0.007751
      0.78521      3.53477      4.24374         0.000410     -0.001003     -0.007751
      0.51933      5.18488      6.38441        -0.003739      0.006573      0.002870
      2.99805      7.65415      7.16210        -0.003739     -0.006573     -0.002870
      4.43810      5.23733      2.64686         0.003739     -0.006573     -0.002870
      1.95938      2.76806      1.86917         0.003739      0.006573      0.002870
      4.18398      5.98755      8.02521         0.001026      0.001379     -0.006776
      1.70527      6.85148      5.52131         0.001026     -0.001379      0.006776
      0.77345      4.43466      1.00606        -0.001026     -0.001379      0.006776
      3.25216      3.57073      3.50996        -0.001026      0.001379     -0.006776
    total drift:                               -0.000000     -0.000000     -0.000000

  FREE ENERGIE OF THE ION-ELECTRON SYSTEM (eV)
  free  energy   TOTEN  =       -67.04075449 eV

  energy  without entropy=      -67.04075449  energy(sigma->0) =      -67.04075449

 d Force = 0.2236617E-04[ 0.215E-04, 0.233E-04]  d Energy = 0.1147971E-04 0.109E-04
 d Force =-0.3895403E-01[-0.390E-01,-0.389E-01]  d Ewald  =-0.4613916E+00 0.422E+00

 reached required accuracy - stopping structural energy minimisation

 total charge

[...]

 magnetization (x)

# of ion       s       p       d       tot
    1        0.000  -0.000   0.000  -0.000
    2       -0.000  -0.000   0.000  -0.000
    3       -0.000  -0.000   0.000  -0.000
    4       -0.000  -0.000   0.000  -0.000
    5       -0.000   0.000   0.000   0.000
    6       -0.000   0.000   0.000   0.000
    7       -0.000   0.000   0.000   0.000
    8        0.000   0.000   0.000   0.000
    9        0.000  -0.000   0.000   0.000
   10        0.000   0.000   0.000   0.000
   11        0.000  -0.000   0.000  -0.000
   12        0.000   0.000   0.000   0.000
   13        0.000   0.000   0.000   0.000
   14       -0.000   0.000   0.000   0.000
   15       -0.000   0.000   0.000   0.000
   16       -0.000   0.000   0.000   0.000
tot         -0.000   0.000   0.000   0.000

 BZINTS: Fermi energy:  4.784427; 64.000000 electrons
         Band energy:-701.734694;  BLOECHL correction:  0.000000