 vasp.6.1.2 22Jul20 (build Dec 05 2020 14:50:36) complex

 executed on         CrayXC-Intel date 2021.02.03  12:04:40

 INCAR:
 POTCAR:    PAW_PBE Li_sv 10Sep2004
 POTCAR:    PAW_PBE P 06Sep2000
 POTCAR:    PAW_PBE Li_sv 10Sep2004
   VRHFIN =Li: 1s2s2p

   TITEL  = PAW_PBE Li_sv 10Sep2004
   POMASS =    7.010; ZVAL   =    3.000    mass and valenz
   ENMAX  =  499.034; ENMIN  =  374.276 eV

 POTCAR:    PAW_PBE P 06Sep2000
   VRHFIN =P : s2p3

   TITEL  = PAW_PBE P 06Sep2000
   POMASS =   30.974; ZVAL   =    5.000    mass and valenz
   ENMAX  =  255.040; ENMIN  =  191.280 eV

 Optimization of the real space projectors (new method)

 maximal supplied QI-value         = 22.11
 optimisation between [QCUT,QGAM] = [ 11.50, 23.22] = [ 37.02,150.92] Ry
 Optimized for a Real-space Cutoff    1.08 Angstroem

   l    n(q)    QCUT    max X(q) W(low)/X(q) W(high)/X(q)  e(spline)
   0      7    11.497    10.506    0.36E-04    0.62E-04    0.14E-07
   0      7    11.497     8.367    0.65E-04    0.14E-03    0.28E-07
   1      7    11.497     8.983    0.21E-03    0.43E-03    0.90E-07
 Optimization of the real space projectors (new method)

 maximal supplied QI-value         = 19.84
 optimisation between [QCUT,QGAM] = [ 11.51, 23.22] = [ 37.09,150.92] Ry
 Optimized for a Real-space Cutoff    1.21 Angstroem

   l    n(q)    QCUT    max X(q) W(low)/X(q) W(high)/X(q)  e(spline)
   0      8    11.508   160.924    0.96E-04    0.17E-03    0.52E-07
   0      8    11.508   130.086    0.95E-04    0.17E-03    0.51E-07
   1      8    11.508    74.434    0.16E-03    0.74E-04    0.91E-07
   1      8    11.508    49.120    0.16E-03    0.71E-04    0.89E-07
  PAW_PBE Li_sv 10Sep2004               :
  PAW_PBE P 06Sep2000                   :

 POSCAR: Li8 P56
  positions in direct lattice
 exchange correlation table for  LEXCH =        8
   RHO(1)=    0.500       N(1)  =     2000
   RHO(2)=  100.500       N(2)  =     4000

 ion  position               nearest neighbor table
   1  0.119  0.119  0.738-  12 2.68  11 2.68  62 2.76  61 2.76
   2  0.869  0.631  0.500-   9 2.68  15 2.68  62 2.76  64 2.76
   3  0.131  0.369  0.500-  14 2.68  16 2.68  61 2.76  63 2.76
   4  0.381  0.381  0.262-  10 2.68  13 2.68  64 2.76  63 2.76
   5  0.631  0.131  0.762-  20 2.68  19 2.68  58 2.76  57 2.76
   6  0.881  0.619  0.000-  17 2.68  23 2.68  58 2.76  60 2.76
   7  0.619  0.881  0.000-  22 2.68  24 2.68  57 2.76  59 2.76
   8  0.369  0.869  0.238-  18 2.68  21 2.68  60 2.76  59 2.76
   9  0.794  0.768  0.383-  25 2.21  12 2.22  44 2.23   2 2.68
  10  0.518  0.635  0.474-  26 2.21  15 2.22  47 2.23   4 2.68
  11  0.161  0.044  0.526-  27 2.21  16 2.22  48 2.23   1 2.68
  12  0.865  0.982  0.526-  28 2.21   9 2.22  41 2.23   1 2.68
  13  0.456  0.339  0.474-  29 2.21  14 2.22  46 2.23   4 2.68
  14  0.385  0.411  0.617-  30 2.21  13 2.22  45 2.23   3 2.68
  15  0.732  0.706  0.617-  31 2.21  10 2.22  42 2.23   2 2.68
  16  0.089  0.115  0.383-  32 2.21  11 2.22  43 2.23   3 2.68
  17  0.956  0.482  0.117-  33 2.21  20 2.22  52 2.23   6 2.68
  18  0.232  0.615  0.026-  34 2.21  23 2.22  55 2.23   8 2.68
  19  0.589  0.206  0.974-  35 2.21  24 2.22  56 2.23   5 2.68
  20  0.885  0.268  0.974-  36 2.21  17 2.22  49 2.23   5 2.68
  21  0.294  0.911  0.026-  37 2.21  22 2.22  54 2.23   8 2.68
  22  0.365  0.839  0.883-  38 2.21  21 2.22  53 2.23   7 2.68
  23  0.018  0.544  0.883-  39 2.21  18 2.22  50 2.23   6 2.68
  24  0.661  0.135  0.117-  40 2.21  19 2.22  51 2.23   7 2.68
  25  0.583  0.710  0.246-   9 2.21  59 2.21  47 2.22
  26  0.460  0.714  0.627-  10 2.21  57 2.21  45 2.22
  27  0.087  0.833  0.373-  11 2.21  60 2.21  44 2.22
  28  0.786  0.040  0.373-  12 2.21  59 2.21  43 2.22
  29  0.667  0.413  0.627-  13 2.21  58 2.21  42 2.22
  30  0.464  0.337  0.754-  14 2.21  58 2.21  48 2.22
  31  0.790  0.917  0.754-  15 2.21  57 2.21  41 2.22
  32  0.163  0.036  0.246-  16 2.21  60 2.21  46 2.22
  33  0.167  0.540  0.254-  17 2.21  63 2.21  55 2.22
  34  0.290  0.536  0.873-  18 2.21  61 2.21  53 2.22
  35  0.663  0.417  0.127-  19 2.21  64 2.21  52 2.22
  36  0.964  0.210  0.127-  20 2.21  63 2.21  51 2.22
  37  0.083  0.837  0.873-  21 2.21  62 2.21  50 2.22
  38  0.286  0.913  0.746-  22 2.21  62 2.21  56 2.22
  39  0.960  0.333  0.746-  23 2.21  61 2.21  49 2.22
  40  0.587  0.214  0.254-  24 2.21  64 2.21  54 2.22
  41  0.717  0.971  0.594-  31 2.22  12 2.23  47 2.29
  42  0.721  0.626  0.753-  29 2.22  15 2.23  45 2.29
  43  0.873  0.967  0.247-  28 2.22  16 2.23  44 2.29
  44  0.874  0.779  0.247-  27 2.22   9 2.23  43 2.29
  45  0.533  0.627  0.753-  26 2.22  14 2.23  42 2.29
  46  0.376  0.123  0.406-  32 2.22  13 2.23  48 2.29
  47  0.529  0.783  0.406-  25 2.22  10 2.23  41 2.29
  48  0.377  0.124  0.594-  30 2.22  11 2.23  46 2.29
  49  0.033  0.279  0.906-  39 2.22  20 2.23  55 2.29
  50  0.029  0.624  0.747-  37 2.22  23 2.23  53 2.29
  51  0.877  0.283  0.253-  36 2.22  24 2.23  52 2.29
  52  0.876  0.471  0.253-  35 2.22  17 2.23  51 2.29
  53  0.217  0.623  0.747-  34 2.22  22 2.23  50 2.29
  54  0.374  0.127  0.094-  40 2.22  21 2.23  56 2.29
  55  0.221  0.467  0.094-  33 2.22  18 2.23  49 2.29
  56  0.373  0.126  0.906-  38 2.22  19 2.23  54 2.29
  57  0.625  0.915  0.790-  31 2.21  26 2.21   7 2.76   5 2.76
  58  0.665  0.375  0.790-  29 2.21  30 2.21   5 2.76   6 2.76
  59  0.585  0.875  0.210-  25 2.21  28 2.21   7 2.76   8 2.76
  60  0.125  0.835  0.210-  27 2.21  32 2.21   8 2.76   6 2.76
  61  0.125  0.335  0.710-  39 2.21  34 2.21   3 2.76   1 2.76
  62  0.085  0.875  0.710-  37 2.21  38 2.21   1 2.76   2 2.76
  63  0.165  0.375  0.290-  33 2.21  36 2.21   3 2.76   4 2.76
  64  0.625  0.415  0.290-  35 2.21  40 2.21   4 2.76   2 2.76

  LATTYP: Found a body centered tetragonal cell.
 ALAT       =    13.6297800000
 C/A-ratio  =     1.0882309179

  Lattice vectors:

 A1 = (  -6.8148900000,   6.8148900000,   7.4161740000)
 A2 = (   6.8148900000,  -6.8148900000,   7.4161740000)
 A3 = (   6.8148900000,   6.8148900000,  -7.4161740000)

Analysis of symmetry for initial positions (statically):
 Subroutine PRICEL returns:
 Original cell was already a primitive cell.

 Routine SETGRP: Setting up the symmetry group for a
 body centered tetragonal supercell.

 Subroutine GETGRP returns: Found 16 space group operations
 (whereof  4 operations were pure point group operations)
 out of a pool of 16 trial point group operations.

The static configuration has the point symmetry S_4 .
 The point group associated with its full space group is D_4h.

Analysis of symmetry for dynamics (positions and initial velocities):
 Subroutine PRICEL returns:
 Original cell was already a primitive cell.

[...]

The dynamic configuration has the point symmetry S_4 .
 The point group associated with its full space group is D_4h.

Analysis of structural, dynamic, and magnetic symmetry:
 Subroutine PRICEL returns:
 Original cell was already a primitive cell.

 Routine SETGRP: Setting up the symmetry group for a
 body centered tetragonal supercell.

 Subroutine GETGRP returns: Found 16 space group operations
 (whereof  4 operations were pure point group operations)
 out of a pool of 16 trial point group operations.

The magnetic configuration has the point symmetry S_4 .
 The point group associated with its full space group is D_4h.

 Subroutine INISYM returns: Found 16 space group operations
 (whereof  4 operations are pure point group operations),
 and found     1 'primitive' translations

                                     Primitive cell

  volume of cell :    1377.7093

  direct lattice vectors                    reciprocal lattice vectors
    -6.814890000  6.814890000  7.416174000    -0.000000000  0.073368756  0.067420209
     6.814890000 -6.814890000  7.416174000     0.073368756 -0.000000000  0.067420209
     6.814890000  6.814890000 -7.416174000     0.073368756  0.073368756  0.000000000

  length of vectors
    12.160801299 12.160801299 12.160801299     0.099641652  0.099641652  0.103759089

  position of ions in fractional coordinates (direct lattice)
     0.118757000  0.118757000  0.737515000
     0.868757000  0.631243000  0.500000000
     0.131243000  0.368757000  0.500000000
     0.381243000  0.381243000  0.262485000
     0.631243000  0.131243000  0.762485000
     0.881243000  0.618757000  0.000000000
     0.618757000  0.881243000  0.000000000
     0.368757000  0.868757000  0.237515000
     0.793929000  0.767734000  0.382791000
     0.517734000  0.634944000  0.473805000
     0.161139000  0.043929000  0.526195000
     0.865056000  0.982266000  0.526195000
     0.456071000  0.338861000  0.473805000
     0.384944000  0.411139000  0.617209000
     0.732266000  0.706071000  0.617209000
     0.088861000  0.115056000  0.382791000
     0.956071000  0.482266000  0.117209000
     0.232266000  0.615056000  0.026195000
     0.588861000  0.206071000  0.973805000
     0.884944000  0.267734000  0.973805000
     0.293929000  0.911139000  0.026195000
     0.365056000  0.838861000  0.882791000
     0.017734000  0.543929000  0.882791000
     0.661139000  0.134944000  0.117209000
     0.582941000  0.709931000  0.246429000
     0.459931000  0.713501000  0.626990000
     0.086512000  0.832941000  0.373010000
     0.786499000  0.040069000  0.373010000
     0.667059000  0.413488000  0.626990000
     0.463501000  0.336512000  0.753571000
     0.790069000  0.917059000  0.753571000
     0.163488000  0.036499000  0.246429000
     0.167059000  0.540069000  0.253571000
     0.290069000  0.536499000  0.873010000
     0.663488000  0.417059000  0.126990000
     0.963501000  0.209931000  0.126990000
     0.082941000  0.836512000  0.873010000
     0.286499000  0.913488000  0.746429000
     0.959931000  0.332941000  0.746429000
     0.586512000  0.213501000  0.253571000
     0.717491000  0.970614000  0.594170000
     0.720614000  0.626445000  0.753123000
     0.873321000  0.967491000  0.246877000
     0.873555000  0.779386000  0.246877000
     0.532509000  0.626679000  0.753123000
     0.376445000  0.123321000  0.405830000
     0.529386000  0.782509000  0.405830000
     0.376679000  0.123555000  0.594170000
     0.032509000  0.279386000  0.905830000
     0.029386000  0.623555000  0.746877000
     0.876679000  0.282509000  0.253123000
     0.876445000  0.470614000  0.253123000
     0.217491000  0.623321000  0.746877000
     0.373555000  0.126679000  0.094170000
     0.220614000  0.467491000  0.094170000
     0.373321000  0.126445000  0.905830000
     0.625000000  0.915130000  0.790130000
     0.665130000  0.375000000  0.790130000
     0.584870000  0.875000000  0.209870000
     0.125000000  0.834870000  0.209870000
     0.125000000  0.334870000  0.709870000
     0.084870000  0.875000000  0.709870000
     0.165130000  0.375000000  0.290130000
     0.625000000  0.415130000  0.290130000

  ion indices of the primitive-cell ions
   primitive index   ion index
                 1           1
                 2           2
                 3           3
                 4           4
                 5           5
                 6           6
                 7           7
                 8           8
                 9           9
                10          10
[...]
   -.243E+02 0.243E+02 0.887E-03   0.236E+02 -.236E+02 -.688E-14   0.692E+00 -.692E+00 -.382E-17   0.232E-04 -.231E-04 -.283E-07
   0.243E+02 -.243E+02 0.108E-02   -.236E+02 0.236E+02 0.161E-14   -.692E+00 0.692E+00 -.876E-17   -.232E-04 0.232E-04 -.762E-08
   -.243E+02 -.243E+02 0.428E-02   0.236E+02 0.236E+02 0.118E-03   0.692E+00 0.692E+00 0.176E-16   0.236E-04 0.235E-04 0.279E-06
   0.473E+02 -.452E+02 0.328E+02   -.481E+02 0.494E+02 -.360E+02   0.844E+00 -.420E+01 0.327E+01   0.154E-04 0.938E-04 0.327E-03
   0.452E+02 0.473E+02 0.328E+02   -.494E+02 -.481E+02 -.360E+02   0.420E+01 0.844E+00 0.327E+01   -.938E-04 0.154E-04 0.327E-03
   -.452E+02 -.473E+02 0.328E+02   0.494E+02 0.481E+02 -.360E+02   -.420E+01 -.844E+00 0.327E+01   0.938E-04 -.153E-04 0.327E-03
   -.473E+02 -.452E+02 -.328E+02   0.481E+02 0.494E+02 0.360E+02   -.844E+00 -.420E+01 -.327E+01   -.154E-04 0.938E-04 -.327E-03
   0.473E+02 0.452E+02 -.328E+02   -.481E+02 -.494E+02 0.360E+02   0.844E+00 0.420E+01 -.327E+01   0.153E-04 -.938E-04 -.327E-03
   -.473E+02 0.452E+02 0.328E+02   0.481E+02 -.494E+02 -.360E+02   -.844E+00 0.420E+01 0.327E+01   -.154E-04 -.938E-04 0.327E-03
   0.452E+02 -.473E+02 -.328E+02   -.494E+02 0.481E+02 0.360E+02   0.420E+01 -.844E+00 -.327E+01   -.939E-04 -.154E-04 -.327E-03
   -.452E+02 0.473E+02 -.328E+02   0.494E+02 -.481E+02 0.360E+02   -.420E+01 0.844E+00 -.327E+01   0.938E-04 0.154E-04 -.327E-03
   -.473E+02 0.452E+02 -.328E+02   0.481E+02 -.494E+02 0.360E+02   -.844E+00 0.420E+01 -.327E+01   -.153E-04 -.939E-04 -.327E-03
   -.452E+02 -.473E+02 -.328E+02   0.494E+02 0.481E+02 0.360E+02   -.420E+01 -.844E+00 -.327E+01   0.939E-04 -.155E-04 -.327E-03
   0.452E+02 0.473E+02 -.328E+02   -.494E+02 -.481E+02 0.360E+02   0.420E+01 0.844E+00 -.327E+01   -.938E-04 0.152E-04 -.327E-03
   0.473E+02 0.452E+02 0.328E+02   -.481E+02 -.494E+02 -.360E+02   0.844E+00 0.420E+01 0.327E+01   0.155E-04 -.939E-04 0.327E-03
   -.473E+02 -.452E+02 0.328E+02   0.481E+02 0.494E+02 -.360E+02   -.844E+00 -.420E+01 0.327E+01   -.152E-04 0.938E-04 0.327E-03
   0.473E+02 -.452E+02 -.328E+02   -.481E+02 0.494E+02 0.360E+02   0.844E+00 -.420E+01 -.327E+01   0.154E-04 0.937E-04 -.327E-03
   -.452E+02 0.473E+02 0.328E+02   0.494E+02 -.481E+02 -.360E+02   -.420E+01 0.844E+00 0.327E+01   0.939E-04 0.153E-04 0.327E-03
   0.452E+02 -.473E+02 0.328E+02   -.494E+02 0.481E+02 -.360E+02   0.420E+01 -.844E+00 0.327E+01   -.937E-04 -.154E-04 0.327E-03
   0.905E+02 0.447E+02 0.431E+02   -.959E+02 -.470E+02 -.463E+02   0.534E+01 0.229E+01 0.323E+01   0.479E-03 -.384E-03 -.381E-04
   -.447E+02 0.905E+02 0.431E+02   0.470E+02 -.959E+02 -.463E+02   -.229E+01 0.534E+01 0.323E+01   0.384E-03 0.479E-03 -.381E-04
   0.447E+02 -.905E+02 0.431E+02   -.470E+02 0.958E+02 -.463E+02   0.229E+01 -.534E+01 0.323E+01   -.384E-03 -.479E-03 -.381E-04
   -.905E+02 0.447E+02 -.431E+02   0.959E+02 -.470E+02 0.463E+02   -.534E+01 0.229E+01 -.323E+01   -.479E-03 -.384E-03 0.381E-04
   0.905E+02 -.447E+02 -.431E+02   -.958E+02 0.470E+02 0.463E+02   0.534E+01 -.229E+01 -.323E+01   0.479E-03 0.384E-03 0.381E-04
   -.905E+02 -.447E+02 0.431E+02   0.958E+02 0.470E+02 -.463E+02   -.534E+01 -.229E+01 0.323E+01   -.479E-03 0.384E-03 -.382E-04
   -.447E+02 -.905E+02 -.431E+02   0.470E+02 0.959E+02 0.463E+02   -.229E+01 -.534E+01 -.323E+01   0.384E-03 -.479E-03 0.381E-04
   0.447E+02 0.905E+02 -.431E+02   -.470E+02 -.958E+02 0.463E+02   0.229E+01 0.534E+01 -.323E+01   -.384E-03 0.479E-03 0.381E-04
   -.905E+02 -.447E+02 -.431E+02   0.959E+02 0.470E+02 0.463E+02   -.534E+01 -.229E+01 -.323E+01   -.479E-03 0.384E-03 0.381E-04
   0.447E+02 -.905E+02 -.431E+02   -.470E+02 0.959E+02 0.463E+02   0.229E+01 -.534E+01 -.323E+01   -.384E-03 -.479E-03 0.381E-04
   -.447E+02 0.905E+02 -.431E+02   0.470E+02 -.958E+02 0.463E+02   -.229E+01 0.534E+01 -.323E+01   0.384E-03 0.479E-03 0.381E-04
   0.905E+02 -.447E+02 0.431E+02   -.959E+02 0.470E+02 -.463E+02   0.534E+01 -.229E+01 0.323E+01   0.479E-03 0.384E-03 -.381E-04
   -.905E+02 0.447E+02 0.431E+02   0.958E+02 -.470E+02 -.463E+02   -.534E+01 0.229E+01 0.323E+01   -.479E-03 -.384E-03 -.381E-04
   0.905E+02 0.447E+02 -.431E+02   -.958E+02 -.470E+02 0.463E+02   0.534E+01 0.229E+01 -.323E+01   0.479E-03 -.384E-03 0.381E-04
   0.447E+02 0.905E+02 0.431E+02   -.470E+02 -.959E+02 -.463E+02   0.229E+01 0.534E+01 0.323E+01   -.384E-03 0.479E-03 -.381E-04
   -.447E+02 -.905E+02 0.431E+02   0.470E+02 0.958E+02 -.463E+02   -.229E+01 -.534E+01 0.323E+01   0.384E-03 -.479E-03 -.382E-04
   -.755E+02 0.478E+02 -.283E+02   0.821E+02 -.494E+02 0.297E+02   -.660E+01 0.166E+01 -.138E+01   -.268E-03 -.752E-04 0.224E-03
   -.478E+02 -.755E+02 -.283E+02   0.494E+02 0.821E+02 0.297E+02   -.166E+01 -.660E+01 -.138E+01   0.752E-04 -.268E-03 0.224E-03
   0.478E+02 0.755E+02 -.283E+02   -.494E+02 -.821E+02 0.297E+02   0.166E+01 0.660E+01 -.138E+01   -.753E-04 0.269E-03 0.224E-03
   0.755E+02 0.478E+02 0.283E+02   -.821E+02 -.494E+02 -.297E+02   0.660E+01 0.166E+01 0.138E+01   0.268E-03 -.752E-04 -.224E-03
   -.755E+02 -.478E+02 0.283E+02   0.821E+02 0.494E+02 -.297E+02   -.660E+01 -.166E+01 0.138E+01   -.269E-03 0.752E-04 -.224E-03
   0.755E+02 -.478E+02 -.283E+02   -.821E+02 0.494E+02 0.297E+02   0.660E+01 -.166E+01 -.138E+01   0.268E-03 0.752E-04 0.224E-03
   -.478E+02 0.755E+02 0.283E+02   0.494E+02 -.821E+02 -.297E+02   -.166E+01 0.660E+01 0.138E+01   0.752E-04 0.268E-03 -.224E-03
   0.478E+02 -.755E+02 0.283E+02   -.494E+02 0.821E+02 -.297E+02   0.166E+01 -.660E+01 0.138E+01   -.752E-04 -.268E-03 -.224E-03
   0.755E+02 -.478E+02 0.283E+02   -.821E+02 0.494E+02 -.297E+02   0.660E+01 -.166E+01 0.138E+01   0.268E-03 0.751E-04 -.224E-03
   0.478E+02 0.755E+02 0.283E+02   -.494E+02 -.821E+02 -.297E+02   0.166E+01 0.660E+01 0.138E+01   -.751E-04 0.268E-03 -.224E-03
   -.478E+02 -.755E+02 0.283E+02   0.494E+02 0.821E+02 -.297E+02   -.166E+01 -.660E+01 0.138E+01   0.752E-04 -.268E-03 -.224E-03
   -.755E+02 -.478E+02 -.283E+02   0.821E+02 0.494E+02 0.297E+02   -.660E+01 -.166E+01 -.138E+01   -.268E-03 0.751E-04 0.224E-03
   0.755E+02 0.478E+02 -.283E+02   -.821E+02 -.494E+02 0.297E+02   0.660E+01 0.166E+01 -.138E+01   0.268E-03 -.753E-04 0.224E-03
   -.755E+02 0.478E+02 0.283E+02   0.821E+02 -.494E+02 -.297E+02   -.660E+01 0.166E+01 0.138E+01   -.268E-03 -.752E-04 -.224E-03
   0.478E+02 -.755E+02 -.283E+02   -.494E+02 0.821E+02 0.297E+02   0.166E+01 -.660E+01 -.138E+01   -.752E-04 -.268E-03 0.224E-03
   -.478E+02 0.755E+02 -.283E+02   0.494E+02 -.821E+02 0.297E+02   -.166E+01 0.660E+01 -.138E+01   0.753E-04 0.268E-03 0.224E-03
   -.619E+02 -.305E-03 0.715E-03   0.672E+02 -.475E-03 -.302E-03   -.527E+01 -.210E-16 -.477E-17   -.835E-04 -.406E-07 -.192E-08
   -.445E-03 -.619E+02 0.245E-03   0.623E-03 0.672E+02 -.489E-03   -.451E-17 -.527E+01 -.229E-16   0.699E-07 -.833E-04 -.768E-07
   -.598E-03 0.619E+02 0.657E-03   0.475E-03 -.672E+02 0.302E-03   -.564E-16 0.527E+01 0.284E-16   0.563E-07 0.835E-04 -.530E-07
   0.619E+02 -.372E-04 0.676E-03   -.672E+02 -.623E-03 0.489E-03   0.527E+01 -.732E-17 -.474E-16   0.833E-04 -.350E-07 0.279E-07
   0.619E+02 -.224E-03 0.791E-03   -.672E+02 0.475E-03 0.302E-03   0.527E+01 0.234E-16 -.539E-17   0.834E-04 -.640E-08 -.414E-07
   -.453E-03 0.619E+02 0.368E-03   -.623E-03 -.672E+02 0.489E-03   -.183E-16 0.527E+01 0.117E-16   0.184E-07 0.834E-04 0.117E-07
   -.678E-03 -.619E+02 0.581E-03   -.475E-03 0.672E+02 -.302E-03   0.515E-16 -.527E+01 0.600E-16   0.220E-07 -.834E-04 -.135E-07
   -.619E+02 -.291E-04 0.553E-03   0.672E+02 0.623E-03 -.489E-03   -.527E+01 0.182E-16 0.287E-16   -.834E-04 0.165E-07 -.605E-07
   -.381E-01 -.108E-01 0.416E-01   0.142E-12 -.400E-14 0.659E-13   -.444E-14 0.268E-14 -.840E-15   0.625E-06 -.230E-06 -.233E-06

 POSITION                                       TOTAL-FORCE (eV/Angst)
      5.01931      5.01931     -3.71396         0.000599      0.000599      0.000000
      1.80201      5.01930      7.42791        -0.000599      0.000599     -0.000000
      5.01930      1.80201     -0.00000         0.000599     -0.000599     -0.000000
      1.80200      1.80200      3.71396        -0.000599     -0.000599      0.000000
      1.80200      8.62331      0.00001        -0.000599     -0.000599     -0.000000
     -1.80201      1.80201     11.14186         0.000599     -0.000599      0.000000
      1.80201     -1.80201     11.14186        -0.000599      0.000599      0.000000
      5.01931     -1.80200      7.42790         0.000599      0.000599      0.000000
      2.43234      2.79929      8.76041         0.000527      0.006673      0.001120
      4.02203      2.43233      5.04646        -0.006673      0.000527      0.001120
      2.79928      4.38898     -2.38144         0.006673     -0.000527      0.001120
      4.38898      2.79928      9.80935        -0.000527      0.006673     -0.001120
      2.43233      4.02203      2.38144         0.000527     -0.006673     -0.001120
      4.38897      4.02202      1.33252        -0.000527     -0.006673      0.001120
      4.02202      4.38897      6.09540        -0.006673     -0.000527     -0.001120
      2.79929      2.43234     -1.33252         0.006673      0.000527     -0.001120
     -2.43234      4.02202      9.80936        -0.000527     -0.006673     -0.001120
      2.79928     -2.43233      6.09540         0.006673     -0.000527     -0.001120
      4.02203      9.25364     -1.33251        -0.006673      0.000527     -0.001120
      2.43233     10.84334      1.33251         0.000527     -0.006673      0.001120
      4.38898     -4.02203      8.76042        -0.000527      0.006673      0.001120
      9.25365      2.79929      2.38144         0.000527      0.006673     -0.001120
      9.62060      2.43234     -2.38145         0.006673      0.000527      0.001120
     -2.79929      4.38897      5.04647        -0.006673     -0.000527      0.001120
      2.54254      0.82622      7.77882        -0.003527     -0.000139      0.001936
      5.99509      2.54255      4.06486         0.000139     -0.003527      0.001936
      7.64753     -2.54254      4.06487        -0.000139      0.003527      0.001936
     -2.54255      7.64753      3.36304         0.003527     -0.000139     -0.001936
      2.54254      5.99509      3.36303        -0.003527      0.000139     -0.001936
      4.27878      5.99509      0.35091         0.003527      0.000139      0.001936
      5.99509      4.27877      7.07699         0.000139      0.003527     -0.001936
      0.82622      2.54253     -0.35091        -0.000139     -0.003527     -0.001936
      4.27877     -0.82622      3.36303         0.003527      0.000139     -0.001936
      7.64753      4.27876     -0.35091        -0.000139      0.003527     -0.001936
     -0.82622      2.54254      7.07699         0.000139     -0.003527     -0.001936
     -4.27876      5.99509      7.77882        -0.003527      0.000139      0.001936
     11.10008      0.82622      0.35092         0.003527     -0.000139      0.001936
      9.36384      0.82622      3.36304        -0.003527     -0.000139     -0.001936
      0.82622      9.36385      4.06487        -0.000139     -0.003527      0.001936
     -0.82622      4.27878      4.06486         0.000139      0.003527      0.001936
      5.77386      2.33528      8.12148        -0.001330      0.001454      0.000061
      4.48603      5.77385      4.40753        -0.001454     -0.001330      0.000061
      2.33528      1.04745     11.83543         0.001454      0.001330      0.000061
      1.04746      2.33528     10.44828         0.001330      0.001454     -0.000061
      5.77386      4.48603      3.02038        -0.001330     -0.001454     -0.000061
      1.04744      4.48603      0.69358         0.001330     -0.001454      0.000061
      4.48603      1.04745      6.73433        -0.001454      0.001330     -0.000061
      2.33528      5.77386     -0.69358         0.001454     -0.001330     -0.000061
      7.86876      4.48603     -4.40753         0.001330     -0.001454     -0.000061
      9.15659      1.04746     -0.69358         0.001454      0.001330     -0.000061
     -2.33528      5.77386      6.73433        -0.001454     -0.001330     -0.000061
     -1.04746      4.48603      8.12149        -0.001330     -0.001454      0.000061
      7.86876      2.33528      0.69357         0.001330      0.001454      0.000061
     -1.04744      2.33528      3.02037        -0.001330      0.001454     -0.000061
      2.33528     -1.04745      4.40753         0.001454     -0.001330      0.000061
      4.48603      7.86875     -3.02037        -0.001454      0.001330      0.000061
      7.35718      3.41065      5.57093         0.000105     -0.000000      0.000000
      3.41065      7.35718      1.85698         0.000000      0.000105      0.000000
      3.41065     -0.53587      9.28488         0.000000     -0.000105     -0.000000
      6.28544     -3.41065      5.57093        -0.000105      0.000000     -0.000000
      6.28544      3.41065     -1.85698        -0.000105     -0.000000     -0.000000
     10.23196     -0.53587      1.85698         0.000000     -0.000105     -0.000000
      3.41065      0.53587      1.85698        -0.000000      0.000105     -0.000000
      0.53587      3.41065      5.57093         0.000105      0.000000      0.000000
    total drift:                               -0.038139     -0.010773      0.041640

  FREE ENERGIE OF THE ION-ELECTRON SYSTEM (eV)
  free  energy   TOTEN  =      -328.55999355 eV

  energy  without entropy=     -328.55999355  energy(sigma->0) =     -328.55999355

 d Force = 0.3667395E-05[ 0.345E-05, 0.388E-05]  d Energy = 0.6678685E-05-0.301E-05
 d Force =-0.2431087E+00[-0.243E+00,-0.243E+00]  d Ewald  =-0.1891808E+00-0.539E-01

 reached required accuracy - stopping structural energy minimisation

 total charge

[...]

 magnetization (x)

# of ion       s       p       d       tot
    1        0.000   0.000   0.000   0.000
    2        0.000   0.000   0.000   0.000
    3        0.000   0.000   0.000   0.000
    4        0.000   0.000   0.000   0.000
    5        0.000   0.000   0.000   0.000
    6        0.000   0.000   0.000   0.000
    7        0.000   0.000   0.000   0.000
    8        0.000   0.000   0.000   0.000
    9        0.000   0.000   0.000   0.000
   10        0.000   0.000   0.000   0.000
   11        0.000   0.000   0.000   0.000
   12        0.000   0.000   0.000   0.000
   13        0.000   0.000   0.000   0.000
   14        0.000   0.000   0.000   0.000
   15        0.000   0.000   0.000   0.000
   16        0.000   0.000   0.000   0.000
   17        0.000   0.000   0.000   0.000
   18        0.000   0.000   0.000   0.000
   19        0.000   0.000   0.000   0.000
   20        0.000   0.000   0.000   0.000
   21        0.000   0.000   0.000   0.000
   22        0.000   0.000   0.000   0.000
   23        0.000   0.000   0.000   0.000
   24        0.000   0.000   0.000   0.000
   25       -0.000   0.000   0.000   0.000
   26       -0.000   0.000   0.000   0.000
   27       -0.000   0.000   0.000   0.000
   28       -0.000   0.000   0.000   0.000
   29       -0.000   0.000   0.000   0.000
   30       -0.000   0.000   0.000   0.000
   31       -0.000   0.000   0.000   0.000
   32       -0.000   0.000   0.000   0.000
   33       -0.000   0.000   0.000   0.000
   34       -0.000   0.000   0.000   0.000
   35       -0.000   0.000   0.000   0.000
   36       -0.000   0.000   0.000   0.000
   37       -0.000   0.000   0.000   0.000
   38       -0.000   0.000   0.000   0.000
   39       -0.000   0.000   0.000   0.000
   40       -0.000   0.000   0.000   0.000
   41       -0.000  -0.000   0.000  -0.000
   42       -0.000  -0.000   0.000  -0.000
   43       -0.000  -0.000   0.000  -0.000
   44       -0.000  -0.000   0.000  -0.000
   45       -0.000  -0.000   0.000  -0.000
   46       -0.000  -0.000   0.000  -0.000
   47       -0.000  -0.000   0.000  -0.000
   48       -0.000  -0.000   0.000  -0.000
   49       -0.000  -0.000   0.000  -0.000
   50       -0.000  -0.000   0.000  -0.000
   51       -0.000  -0.000   0.000  -0.000
   52       -0.000  -0.000   0.000  -0.000
   53       -0.000  -0.000   0.000  -0.000
   54       -0.000  -0.000   0.000  -0.000
   55       -0.000  -0.000   0.000  -0.000
   56       -0.000  -0.000   0.000  -0.000
   57       -0.000  -0.000   0.000  -0.000
   58       -0.000  -0.000   0.000  -0.000
   59       -0.000  -0.000   0.000  -0.000
   60       -0.000  -0.000   0.000  -0.000
   61       -0.000  -0.000   0.000  -0.000
   62       -0.000  -0.000   0.000  -0.000
   63       -0.000  -0.000   0.000  -0.000
   64       -0.000  -0.000   0.000  -0.000
tot          0.000   0.000   0.000   0.000

 BZINTS: Fermi energy:    3.727286;  304.000000 electrons
         Band energy:-0.122441E+04;  BLOECHL correction:    0.000000