 vasp.5.4.4.18Apr17-6-g9f103f2a35 (build Aug 12 2020 11:57:02) complex

 executed on             LinuxIFC date 2021.01.31  03:17:10

 INCAR:
 POTCAR:    PAW_PBE Li_sv 10Sep2004
 POTCAR:    PAW_PBE N 08Apr2002
 POTCAR:    PAW_PBE Li_sv 10Sep2004
   VRHFIN =Li: 1s2s2p

   TITEL  = PAW_PBE Li_sv 10Sep2004
   POMASS =    7.010; ZVAL   =    3.000    mass and valenz
   ENMAX  =  499.034; ENMIN  =  374.276 eV

 POTCAR:    PAW_PBE N 08Apr2002
   VRHFIN =N: s2p3

   TITEL  = PAW_PBE N 08Apr2002
   POMASS =   14.001; ZVAL   =    5.000    mass and valenz
   ENMAX  =  400.000; ENMIN  =  300.000 eV

 Optimization of the real space projectors (new method)

 maximal supplied QI-value         = 22.11
 optimisation between [QCUT,QGAM] = [ 11.50, 23.22] = [ 37.02,150.92] Ry
 Optimized for a Real-space Cutoff    1.08 Angstroem

   l    n(q)    QCUT    max X(q) W(low)/X(q) W(high)/X(q)  e(spline)
   0      7    11.497    10.506    0.36E-04    0.62E-04    0.14E-07
   0      7    11.497     8.367    0.65E-04    0.14E-03    0.28E-07
   1      7    11.497     8.983    0.21E-03    0.43E-03    0.90E-07
 Optimization of the real space projectors (new method)

 maximal supplied QI-value         = 25.13
 optimisation between [QCUT,QGAM] = [ 11.56, 23.12] = [ 37.43,149.72] Ry
 Optimized for a Real-space Cutoff    1.40 Angstroem

   l    n(q)    QCUT    max X(q) W(low)/X(q) W(high)/X(q)  e(spline)
   0     10    11.561    79.467    0.46E-04    0.78E-04    0.61E-06
   0     10    11.561    66.151    0.45E-04    0.77E-04    0.61E-06
   1      9    11.561    18.886    0.22E-03    0.13E-03    0.12E-05
   1      9    11.561    13.488    0.23E-03    0.13E-03    0.12E-05
  PAW_PBE Li_sv 10Sep2004               :
  PAW_PBE N 08Apr2002                   :

 POSCAR: Li3 N1
  positions in direct lattice
 exchange correlation table for  LEXCH =        8
   RHO(1)=    0.500       N(1)  =     2000
   RHO(2)=  100.500       N(2)  =     4000

 ion  position               nearest neighbor table
   1  0.000  0.000  0.500-   4 1.94   4 1.94
   2  0.333  0.667  0.000-   4 2.11   3 2.11   3 2.11   4 2.11   4 2.11   3 2.11
   3  0.667  0.333  0.000-   4 2.11   2 2.11   2 2.11   4 2.11   4 2.11   2 2.11
   4  0.000  0.000  0.000-   1 1.94   1 1.94   3 2.11   2 2.11   3 2.11   2 2.11   3 2.11   2 2.11

  LATTYP: Found a hexagonal cell.
 ALAT       =     3.6506900000
 C/A-ratio  =     1.0651780896

  Lattice vectors:

 A1 = (   1.8253450000,  -3.1615900000,   0.0000000000)
 A2 = (   1.8253450000,   3.1615900000,   0.0000000000)
 A3 = (   0.0000000000,   0.0000000000,   3.8886350000)

Analysis of symmetry for initial positions (statically):
 Subroutine PRICEL returns:
 Original cell was already a primitive cell.

 Routine SETGRP: Setting up the symmetry group for a
 hexagonal supercell.

 Subroutine GETGRP returns: Found 24 space group operations
 (whereof 24 operations were pure point group operations)
 out of a pool of 24 trial point group operations.

The static configuration has the point symmetry D_6h.

Analysis of symmetry for dynamics (positions and initial velocities):
 Subroutine PRICEL returns:
 Original cell was already a primitive cell.

[...]

The dynamic configuration has the point symmetry D_6h.

Analysis of structural, dynamic, and magnetic symmetry:
 Subroutine PRICEL returns:
 Original cell was already a primitive cell.

 Routine SETGRP: Setting up the symmetry group for a
 hexagonal supercell.

 Subroutine GETGRP returns: Found 24 space group operations
 (whereof 24 operations were pure point group operations)
 out of a pool of 24 trial point group operations.

The magnetic configuration has the point symmetry D_6h.

 Subroutine INISYM returns: Found 24 space group operations
 (whereof 24 operations are pure point group operations),
 and found     1 'primitive' translations

 KPOINTS: Fully automatic kpoint scheme

Automatic generation of k-mesh.
 generate k-points for:   10   10    8
Space group operators:
 irot       det(A)        alpha          n_x          n_y          n_z        tau_x        tau_y        tau_z
    1     1.000000     0.000001     1.000000     0.000000     0.000000     0.000000     0.000000     0.000000
    2    -1.000000     0.000001     1.000000     0.000000     0.000000     0.000000     0.000000     0.000000
    3     1.000000    60.000000     0.000000     0.000000    -1.000000     0.000000     0.000000     0.000000
    4    -1.000000    60.000000     0.000000     0.000000    -1.000000     0.000000     0.000000     0.000000
    5     1.000000   120.000000     0.000000     0.000000    -1.000000     0.000000     0.000000     0.000000
    6    -1.000000   120.000000     0.000000     0.000000    -1.000000     0.000000     0.000000     0.000000
    7     1.000000   180.000000     0.000000     0.000000     1.000000     0.000000     0.000000     0.000000
    8    -1.000000   180.000000     0.000000     0.000000     1.000000     0.000000     0.000000     0.000000
    9     1.000000   120.000000     0.000000     0.000000     1.000000     0.000000     0.000000     0.000000
   10    -1.000000   120.000000     0.000000     0.000000     1.000000     0.000000     0.000000     0.000000
   11     1.000000    60.000000     0.000000     0.000000     1.000000     0.000000     0.000000     0.000000
   12    -1.000000    60.000000     0.000000     0.000000     1.000000     0.000000     0.000000     0.000000
   13     1.000000   180.000000     0.500000    -0.866025     0.000000     0.000000     0.000000     0.000000
   14    -1.000000   180.000000     0.500000    -0.866025     0.000000     0.000000     0.000000     0.000000
   15     1.000000   180.000000     0.000000     1.000000     0.000000     0.000000     0.000000     0.000000
   16    -1.000000   180.000000     0.000000     1.000000     0.000000     0.000000     0.000000     0.000000
   17     1.000000   180.000000    -0.500000    -0.866025     0.000000     0.000000     0.000000     0.000000
   18    -1.000000   180.000000    -0.500000    -0.866025     0.000000     0.000000     0.000000     0.000000
   19     1.000000   180.000000     0.866025     0.500000     0.000000     0.000000     0.000000     0.000000
   20    -1.000000   180.000000     0.866025     0.500000     0.000000     0.000000     0.000000     0.000000
   21     1.000000   180.000000     1.000000     0.000000     0.000000     0.000000     0.000000     0.000000
   22    -1.000000   180.000000     1.000000     0.000000     0.000000     0.000000     0.000000     0.000000
   23     1.000000   180.000000     0.866025    -0.500000     0.000000     0.000000     0.000000     0.000000
   24    -1.000000   180.000000     0.866025    -0.500000     0.000000     0.000000     0.000000     0.000000

 Subroutine IBZKPT returns following result:

 Found     70 irreducible k-points:

 Following reciprocal coordinates:
            Coordinates               Weight
  0.000000  0.000000  0.000000      1.000000
  0.100000  0.000000  0.000000      6.000000
  0.200000  0.000000  0.000000      6.000000
  0.300000  0.000000  0.000000      6.000000
  0.400000  0.000000  0.000000      6.000000
  0.500000  0.000000  0.000000      3.000000
  0.100000  0.100000  0.000000      6.000000
  0.200000  0.100000  0.000000     12.000000
  0.300000  0.100000  0.000000     12.000000
  0.400000  0.100000  0.000000     12.000000
  0.200000  0.200000  0.000000      6.000000
  0.300000  0.200000  0.000000     12.000000
  0.400000  0.200000  0.000000      6.000000
  0.300000  0.300000  0.000000      6.000000
  0.000000  0.000000  0.125000      2.000000
  0.100000  0.000000  0.125000     12.000000
  0.200000  0.000000  0.125000     12.000000
  0.300000  0.000000  0.125000     12.000000
  0.400000  0.000000  0.125000     12.000000
  0.500000  0.000000  0.125000      6.000000
  0.100000  0.100000  0.125000     12.000000
  0.200000  0.100000  0.125000     24.000000
  0.300000  0.100000  0.125000     24.000000
  0.400000  0.100000  0.125000     24.000000
  0.200000  0.200000  0.125000     12.000000
  0.300000  0.200000  0.125000     24.000000
  0.400000  0.200000  0.125000     12.000000
  0.300000  0.300000  0.125000     12.000000
  0.000000  0.000000  0.250000      2.000000
  0.100000  0.000000  0.250000     12.000000
  0.200000  0.000000  0.250000     12.000000
  0.300000  0.000000  0.250000     12.000000
  0.400000  0.000000  0.250000     12.000000
  0.500000  0.000000  0.250000      6.000000
  0.100000  0.100000  0.250000     12.000000
  0.200000  0.100000  0.250000     24.000000
  0.300000  0.100000  0.250000     24.000000
  0.400000  0.100000  0.250000     24.000000
  0.200000  0.200000  0.250000     12.000000
  0.300000  0.200000  0.250000     24.000000
  0.400000  0.200000  0.250000     12.000000
  0.300000  0.300000  0.250000     12.000000
  0.000000  0.000000  0.375000      2.000000
  0.100000  0.000000  0.375000     12.000000
  0.200000  0.000000  0.375000     12.000000
  0.300000  0.000000  0.375000     12.000000
  0.400000  0.000000  0.375000     12.000000
  0.500000  0.000000  0.375000      6.000000
  0.100000  0.100000  0.375000     12.000000
  0.200000  0.100000  0.375000     24.000000
  0.300000  0.100000  0.375000     24.000000
  0.400000  0.100000  0.375000     24.000000
  0.200000  0.200000  0.375000     12.000000
  0.300000  0.200000  0.375000     24.000000
  0.400000  0.200000  0.375000     12.000000
  0.300000  0.300000  0.375000     12.000000
  0.000000  0.000000  0.500000      1.000000
  0.100000  0.000000  0.500000      6.000000
  0.200000  0.000000  0.500000      6.000000
  0.300000  0.000000  0.500000      6.000000
  0.400000  0.000000  0.500000      6.000000
  0.500000  0.000000  0.500000      3.000000
  0.100000  0.100000  0.500000      6.000000
  0.200000  0.100000  0.500000     12.000000
  0.300000  0.100000  0.500000     12.000000
  0.400000  0.100000  0.500000     12.000000
  0.200000  0.200000  0.500000      6.000000
  0.300000  0.200000  0.500000     12.000000
  0.400000  0.200000  0.500000      6.000000
  0.300000  0.300000  0.500000      6.000000

 Following cartesian coordinates:
            Coordinates               Weight
  0.000000  0.000000  0.000000      1.000000
  0.027392 -0.015815  0.000000      6.000000
  0.054784 -0.031630  0.000000      6.000000
  0.082176 -0.047444  0.000000      6.000000
  0.109568 -0.063259  0.000000      6.000000
  0.136960 -0.079074  0.000000      3.000000
  0.054784  0.000000  0.000000      6.000000
  0.082176 -0.015815  0.000000     12.000000
  0.109568 -0.031630  0.000000     12.000000
  0.136960 -0.047444  0.000000     12.000000
  0.109568  0.000000  0.000000      6.000000
  0.136960 -0.015815  0.000000     12.000000
  0.164352 -0.031630  0.000000      6.000000
  0.164352  0.000000  0.000000      6.000000
  0.000000  0.000000  0.032145      2.000000
  0.027392 -0.015815  0.032145     12.000000
  0.054784 -0.031630  0.032145     12.000000
  0.082176 -0.047444  0.032145     12.000000
  0.109568 -0.063259  0.032145     12.000000
  0.136960 -0.079074  0.032145      6.000000
  0.054784  0.000000  0.032145     12.000000
  0.082176 -0.015815  0.032145     24.000000
  0.109568 -0.031630  0.032145     24.000000
  0.136960 -0.047444  0.032145     24.000000
[...]
 k-point 33 :   0.4000 0.0000 0.2500  plane waves:    1214
 k-point 34 :   0.5000 0.0000 0.2500  plane waves:    1204
 k-point 35 :   0.1000 0.1000 0.2500  plane waves:    1211
 k-point 36 :   0.2000 0.1000 0.2500  plane waves:    1208
 k-point 37 :   0.3000 0.1000 0.2500  plane waves:    1205
 k-point 38 :   0.4000 0.1000 0.2500  plane waves:    1209
 k-point 39 :   0.2000 0.2000 0.2500  plane waves:    1208
 k-point 40 :   0.3000 0.2000 0.2500  plane waves:    1203
 k-point 41 :   0.4000 0.2000 0.2500  plane waves:    1205
 k-point 42 :   0.3000 0.3000 0.2500  plane waves:    1203
 k-point 43 :   0.0000 0.0000 0.3750  plane waves:    1208
 k-point 44 :   0.1000 0.0000 0.3750  plane waves:    1216
 k-point 45 :   0.2000 0.0000 0.3750  plane waves:    1205
 k-point 46 :   0.3000 0.0000 0.3750  plane waves:    1212
 k-point 47 :   0.4000 0.0000 0.3750  plane waves:    1209
 k-point 48 :   0.5000 0.0000 0.3750  plane waves:    1210
 k-point 49 :   0.1000 0.1000 0.3750  plane waves:    1214
 k-point 50 :   0.2000 0.1000 0.3750  plane waves:    1207
 k-point 51 :   0.3000 0.1000 0.3750  plane waves:    1207
 k-point 52 :   0.4000 0.1000 0.3750  plane waves:    1211
 k-point 53 :   0.2000 0.2000 0.3750  plane waves:    1204
 k-point 54 :   0.3000 0.2000 0.3750  plane waves:    1210
 k-point 55 :   0.4000 0.2000 0.3750  plane waves:    1210
 k-point 56 :   0.3000 0.3000 0.3750  plane waves:    1207
 k-point 57 :   0.0000 0.0000 0.5000  plane waves:    1202
 k-point 58 :   0.1000 0.0000 0.5000  plane waves:    1210
 k-point 59 :   0.2000 0.0000 0.5000  plane waves:    1220
 k-point 60 :   0.3000 0.0000 0.5000  plane waves:    1202
 k-point 61 :   0.4000 0.0000 0.5000  plane waves:    1208
 k-point 62 :   0.5000 0.0000 0.5000  plane waves:    1204
 k-point 63 :   0.1000 0.1000 0.5000  plane waves:    1216
 k-point 64 :   0.2000 0.1000 0.5000  plane waves:    1212
 k-point 65 :   0.3000 0.1000 0.5000  plane waves:    1210
 k-point 66 :   0.4000 0.1000 0.5000  plane waves:    1210
 k-point 67 :   0.2000 0.2000 0.5000  plane waves:    1206
 k-point 68 :   0.3000 0.2000 0.5000  plane waves:    1208
 k-point 69 :   0.4000 0.2000 0.5000  plane waves:    1206
 k-point 70 :   0.3000 0.3000 0.5000  plane waves:    1220

 maximum and minimum number of plane-waves per node :       214      179

 maximum number of plane-waves:      1222
 maximum index in each direction:
   IXMAX=    6   IYMAX=    6   IZMAX=    7
   IXMIN=   -7   IYMIN=   -7   IZMIN=   -7

 real space projection operators:
  max/ min on nodes  :        126.42         92.44

 parallel 3D FFT for wavefunctions:
    minimum data exchange during FFTs selected (reduces bandwidth)
 parallel 3D FFT for charge:
    minimum data exchange during FFTs selected (reduces bandwidth)

 Broyden mixing: mesh for mixing (old mesh)
   NGX = 13   NGY = 13   NGZ = 15
  (NGX  = 56   NGY  = 56   NGZ  = 60)
  gives a total of   2535 points

 initial charge density was supplied:
 charge density of overlapping atoms calculated
 number of electron      14.0000000 magnetization       0.0000000
 keeping initial charge density in first step

 Maximum index for non-local projection operator         1101
 Maximum index for augmentation-charges          594 (set IRDMAX)

 First call to EWALD:  gamma=   0.499
 Maximum number of real-space cells 3x 3x 3
 Maximum number of reciprocal cells 3x 3x 3

--------------------------------------- Iteration      1(   1)  ---------------------------------------

 BZINTS: Fermi energy:  8.280356; 14.000000 electrons
         Band energy:-225.203735;  BLOECHL correction: -0.206328

 eigenvalue-minimisations  :  3360
 total energy-change (2. order) : 0.5923338E+02  (-0.6520103E+03)
 number of electron      14.0000000 magnetization       0.0000000
 augmentation part       14.0000000 magnetization       0.0000000

 Free energy of the ion-electron system (eV)
  alpha Z        PSCENC =        13.90221234
  Ewald energy   TEWEN  =      -415.65189409
  -Hartree energ DENC   =      -195.81592886
  -exchange      EXHF   =         0.00000000
  -V(xc)+E(xc)   XCENC  =        56.55542179
  PAW double counting   =       444.21760909     -491.62491534
  entropy T*S    EENTRO =         0.00000000
  eigenvalues    EBANDS =      -225.20373549
  atomic energy  EATOM  =       872.85461122
  Solvation  Ediel_sol  =         0.00000000
  free energy    TOTEN  =        59.23338067 eV

  energy without entropy =       59.23338067  energy(sigma->0) =       59.23338067

[...]

 eigenvalue-minimisations  :  4596
 total energy-change (2. order) :-0.6953933E+02  (-0.6525528E+02)
 number of electron      14.0000000 magnetization       0.0000000
 augmentation part       14.0000000 magnetization       0.0000000

[...]

 Broyden mixing:
  rms(total) = 0.98063E+00    rms(broyden)= 0.98022E+00
  rms(prec ) = 0.31341E+01
  weight for this iteration     100.00

[...]

 eigenvalues of (default mixing * dielectric matrix)
  average eigenvalue GAMMA=   0.6877
  0.6877

[...]

 average (electrostatic) potential at core
  the test charge radii are     0.7079  0.7089
  (the norm of the test charge is              1.0000)
       1 -61.8860       2 -62.1750       3 -62.1750       4 -64.9060

 E-fermi :   1.3999     XC(G=0):  -8.4907     alpha+bet :-11.9339

 spin component 1

 k-point     1 :       0.0000    0.0000    0.0000
  band No.  band energies     occupation
      1     -43.2513      1.00000
      2     -42.9182      1.00000
      3     -42.7913      1.00000
      4     -10.1484      1.00000
      5      -0.2132      1.00000
      6       1.1163      1.00000
      7       1.1163      1.00000
      8       2.3483      0.00000
      9       8.5784      0.00000
     10       8.5785      0.00000
     11       9.5107      0.00000
     12      13.4889      0.00000

[...]

 soft charge-density along one line, spin component           1
         0         1         2         3         4         5         6         7         8         9
 total charge-density along one line

[...]

------------------------ aborting loop because EDIFF is reached ----------------------------------------

 total charge

# of ion       s       p       d       tot
    1        2.041   0.080   0.000   2.122
    2        2.041   0.087   0.000   2.128
    3        2.041   0.087   0.000   2.128
    4        1.225   2.386   0.000   3.611
tot          7.348   2.641   0.000   9.989

 magnetization (x)

[...]

  FORCE on cell =-STRESS in cart. coord.  units (eV):
  Direction    XX          YY          ZZ          XY          YZ          ZX
  Alpha Z    13.90221    13.90221    13.90221
  Ewald    -100.75344  -100.75295  -214.14608     0.00000     0.00000    -0.00000
  Hartree   102.04907   102.04920    15.77637     0.00000     0.00000    -0.00000
  E(xc)     -62.59219   -62.59220   -62.69379    -0.00000     0.00000     0.00000
  Local    -164.42174  -164.42272    36.09033     0.00000    -0.00000     0.00000
  n-local   -72.11785   -74.76269   -73.22333    -1.06683    -0.08996     0.49597
  augment    50.90585    50.90633    50.93956    -0.00000     0.00000     0.00000
  Kinetic   230.30887   237.99842   233.14168     3.81336     0.73794    -3.55323
  Fock        0.00000     0.00000     0.00000     0.00000     0.00000     0.00000
  Total      -0.19681    -0.19681    -0.21304     0.00000    -0.00000     0.00000
  in kB      -7.02549    -7.02549    -7.60487     0.00000    -0.00000     0.00000

 VOLUME and BASIS-vectors are now :
  energy-cutoff  :      520.00
  volume of cell :       44.88
      direct lattice vectors                 reciprocal lattice vectors
     1.825345000 -3.161590000  0.000000000     0.273920820 -0.158148273  0.000000000
     1.825345000  3.161590000  0.000000000     0.273920820  0.158148273  0.000000000
     0.000000000  0.000000000  3.888635000     0.000000000  0.000000000  0.257159646

[...]

 FORCES acting on ions
    electron-ion (+dipol)            ewald-force                    non-local-force                 convergence-correction
   0.145E-14 0.726E-14 0.379E-13   -.427E-15 0.236E-15 0.211E-14   -.397E-22 -.265E-22 0.000E+00   -.496E-14 -.136E-14 0.135E-13
   0.147E-12 -.817E-03 0.178E-11   0.365E-16 -.260E-03 -.574E-15   -.173E-17 0.694E-17 0.000E+00   0.835E-14 0.841E-08 -.809E-15
   0.982E-13 0.817E-03 0.239E-11   0.115E-14 0.260E-03 -.576E-15   0.867E-18 -.694E-17 0.000E+00   -.566E-14 -.841E-08 -.865E-14
   -.208E-14 0.174E-15 0.255E-15   -.930E-15 0.561E-15 -.108E-14   0.106E-21 0.000E+00 0.000E+00   -.784E-14 -.394E-14 -.281E-13
   0.245E-12 -.357E-12 0.421E-11   -.167E-15 -.296E-15 -.120E-15   -.867E-18 -.265E-22 0.000E+00   -.101E-13 -.365E-14 -.240E-13

 POSITION                                       TOTAL-FORCE (eV/Angst)
      0.00000      0.00000      1.94432         0.000000     -0.000000      0.000000
      1.82534      1.05387      0.00000        -0.000000     -0.000000      0.000000
      1.82534     -1.05387      0.00000         0.000000      0.000000      0.000000
      0.00000      0.00000      0.00000         0.000000     -0.000000      0.000000
    total drift:                                0.000000     -0.000000      0.000000

  FREE ENERGIE OF THE ION-ELECTRON SYSTEM (eV)
  free  energy   TOTEN  =       -15.62481476 eV

  energy  without entropy=      -15.62481476  energy(sigma->0) =      -15.62481476

[...]

 eigenvalue-minimisations  :  2163
 total energy-change (2. order) :-0.7517705E-06  ( 0.4945247E-07)
 number of electron      13.9999994 magnetization       0.0000000
 augmentation part        2.8872674 magnetization      -0.0000078

[...]

 d Force = 0.0000000E+00[ 0.000E+00, 0.000E+00]  d Energy = 0.1115941E-02-0.112E-02
 d Force = 0.0000000E+00[ 0.000E+00, 0.000E+00]  d Ewald  = 0.1031071E+01-0.103E+01

 Steepest descent step on ions:
 trial-energy change:   -0.001116  1 .order   -0.001095   -0.001482   -0.000708
  (g-gl).g = 0.148E-02      g.g   = 0.148E-02  gl.gl    = 0.000E+00
 g(Force)  = 0.886E-40   g(Stress)= 0.148E-02 ortho     = 0.000E+00
 gamma     =   0.00000
 trial     =   1.00000
 opt step  =   1.91540  (harmonic =   1.91540) maximal distance =0.00000000
 next E    =   -15.626234   (d E  =  -0.00142)

 real space projection operators:
  max/ min on nodes  :        126.89         93.16

[...]

 eigenvalue-minimisations  :  3736
 total energy-change (2. order) :-0.2238318E-02  (-0.3498038E-02)
 number of electron      13.9999996 magnetization      -0.0000000
 augmentation part        2.8720768 magnetization       0.0000036

[...]

 eigenvalue-minimisations  :  3297
 total energy-change (2. order) : 0.1487594E-04  (-0.5928250E-05)
 number of electron      13.9999996 magnetization      -0.0000000
 augmentation part        2.8833304 magnetization      -0.0000033

 Broyden mixing:
  rms(total) = 0.46048E-03    rms(broyden)= 0.45737E-03
  rms(prec ) = 0.60607E-03
  weight for this iteration     100.00

 eigenvalues of (default mixing * dielectric matrix)
  average eigenvalue GAMMA=   1.3082
  2.3212  1.3386  0.7865  0.7865

[...]

--------------------------------------- Iteration      3(   6)  ---------------------------------------

[...]

 eigenvalue-minimisations  :  2143
 total energy-change (2. order) :-0.7717340E-06  ( 0.6785715E-07)
 number of electron      13.9999996 magnetization      -0.0000000
 augmentation part        2.8833304 magnetization      -0.0000033

 Free energy of the ion-electron system (eV)
  alpha Z        PSCENC =        14.09887798
  Ewald energy   TEWEN  =      -417.63128937
  -Hartree energ DENC   =      -219.09554957
  -exchange      EXHF   =         0.00000000
  -V(xc)+E(xc)   XCENC  =        57.90210690
  PAW double counting   =       635.96893445     -683.31466727
  entropy T*S    EENTRO =         0.00000000
  eigenvalues    EBANDS =      -276.40925032
  atomic energy  EATOM  =       872.85461122
  Solvation  Ediel_sol  =         0.00000000
  free energy    TOTEN  =       -15.62622598 eV

  energy without entropy =      -15.62622598  energy(sigma->0) =      -15.62622598

 average (electrostatic) potential at core
  the test charge radii are     0.7079  0.7089
  (the norm of the test charge is              1.0000)
       1 -61.7892       2 -62.0870       3 -62.0870       4 -64.8299

 E-fermi :   1.5256     XC(G=0):  -8.5379     alpha+bet :-12.1028

[...]

 spin component 2

[...]

 k-point    70 :       0.3000    0.3000    0.5000
  band No.  band energies     occupation
      1     -43.0161      1.00000
      2     -42.9725      1.00000
      3     -42.6946      1.00000
      4     -10.1016      1.00000
      5       0.0434      1.00000
      6       0.1600      1.00000
      7       0.9132      1.00000
      8       3.4197      0.00000
      9       4.3323      0.00000
     10      10.4369      0.00000
     11      11.9217      0.00000
     12      12.1824      0.00000

[...]

 soft charge-density along one line, spin component           2
         0         1         2         3         4         5         6         7         8         9
 total charge-density along one line

------------------------ aborting loop because EDIFF is reached ----------------------------------------

[...]

  FORCE on cell =-STRESS in cart. coord.  units (eV):
  Direction    XX          YY          ZZ          XY          YZ          ZX
  Alpha Z    14.09888    14.09888    14.09888
  Ewald    -101.32366  -101.32317  -214.98504    -0.00000    -0.00000     0.00000
  Hartree   101.80722   101.80735    15.48426    -0.00000     0.00000    -0.00000
  E(xc)     -62.66273   -62.66273   -62.76468    -0.00000     0.00000     0.00000
  Local    -163.77821  -163.77920    37.07889    -0.00000     0.00000    -0.00000
  n-local   -72.79244   -75.46736   -73.92873    -1.07768    -0.08796     0.49242
  augment    50.72546    50.72594    50.75894    -0.00000     0.00000    -0.00000
  Kinetic   231.40313   239.15714   234.25601     3.84196     0.74205    -3.57578
  Fock        0.00000     0.00000     0.00000     0.00000     0.00000     0.00000
  Total       0.01726     0.01726    -0.00147     0.00000    -0.00000    -0.00000
  in kB       0.62478     0.62478    -0.05335     0.00000    -0.00000    -0.00000

 VOLUME and BASIS-vectors are now :
  energy-cutoff  :      520.00
  volume of cell :       44.26
      direct lattice vectors                 reciprocal lattice vectors
     1.817046125 -3.147215930  0.000000000     0.275171881 -0.158870574 -0.000000000
     1.817046125  3.147215930  0.000000000     0.275171881  0.158870574  0.000000000
     0.000000000 -0.000000000  3.869497439    -0.000000000  0.000000000  0.258431493

  length of vectors
     3.634092009  3.634092009  3.869497439     0.317741126  0.317741126  0.258431493

 FORCES acting on ions
    electron-ion (+dipol)            ewald-force                    non-local-force                 convergence-correction
   0.215E-14 0.571E-14 0.362E-13   0.363E-15 0.359E-15 0.420E-14   -.414E-24 -.250E-23 0.000E+00   -.240E-14 -.377E-14 0.140E-13
   0.122E-12 -.816E-03 0.179E-11   0.279E-14 -.263E-03 -.200E-15   0.000E+00 0.347E-17 0.000E+00   -.112E-14 -.962E-09 -.595E-14
   0.118E-12 0.816E-03 0.239E-11   -.152E-14 0.263E-03 -.249E-15   -.867E-18 -.867E-17 0.000E+00   0.214E-14 0.962E-09 -.726E-14
   -.367E-14 0.453E-15 -.113E-14   -.127E-14 0.459E-15 -.373E-14   -.265E-22 0.533E-22 0.000E+00   -.216E-14 -.826E-14 -.270E-13
   0.239E-12 -.364E-12 0.422E-11   0.353E-15 -.446E-16 0.174E-16   -.867E-18 -.520E-17 0.000E+00   -.353E-14 -.102E-13 -.262E-13

 POSITION                                       TOTAL-FORCE (eV/Angst)
      0.00000     -0.00000      1.93475        -0.000000      0.000000      0.000000
      1.81705      1.04907      0.00000         0.000000     -0.000000      0.000000
      1.81705     -1.04907      0.00000        -0.000000      0.000000      0.000000
      0.00000     -0.00000      0.00000        -0.000000      0.000000      0.000000
    total drift:                                0.000000     -0.000000      0.000000

  FREE ENERGIE OF THE ION-ELECTRON SYSTEM (eV)
  free  energy   TOTEN  =       -15.62622598 eV

  energy  without entropy=      -15.62622598  energy(sigma->0) =      -15.62622598

 d Force = 0.0000000E+00[ 0.000E+00, 0.000E+00]  d Energy = 0.2952834E-03-0.295E-03
 d Force = 0.0000000E+00[ 0.000E+00, 0.000E+00]  d Ewald  = 0.9483244E+00-0.948E+00

 reached required accuracy - stopping structural energy minimisation

 total charge

[...]

 magnetization (x)

# of ion       s       p       d       tot
    1        0.000  -0.000   0.000   0.000
    2        0.000   0.000   0.000   0.000
    3        0.000   0.000   0.000   0.000
    4       -0.000  -0.000   0.000  -0.000
tot          0.000  -0.000   0.000  -0.000

 BZINTS: Fermi energy:  1.525558; 14.000000 electrons
         Band energy:-276.409250;  BLOECHL correction:  0.000000