 vasp.5.4.4.18Apr17-6-g9f103f2a35 (build Aug 12 2020 11:57:02) complex

 executed on             LinuxIFC date 2021.01.31  03:19:41

 INCAR:
 POTCAR:    PAW_PBE Li_sv 10Sep2004
 POTCAR:    PAW_PBE P 06Sep2000
 POTCAR:    PAW_PBE O 08Apr2002
 POTCAR:    PAW_PBE Li_sv 10Sep2004
   VRHFIN =Li: 1s2s2p

   TITEL  = PAW_PBE Li_sv 10Sep2004
   POMASS =    7.010; ZVAL   =    3.000    mass and valenz
   ENMAX  =  499.034; ENMIN  =  374.276 eV

 POTCAR:    PAW_PBE P 06Sep2000
   VRHFIN =P : s2p3

   TITEL  = PAW_PBE P 06Sep2000
   POMASS =   30.974; ZVAL   =    5.000    mass and valenz
   ENMAX  =  255.040; ENMIN  =  191.280 eV

 POTCAR:    PAW_PBE O 08Apr2002
   VRHFIN =O: s2p4

   TITEL  = PAW_PBE O 08Apr2002
   POMASS =   16.000; ZVAL   =    6.000    mass and valenz
   ENMAX  =  400.000; ENMIN  =  300.000 eV

 Optimization of the real space projectors (new method)

 maximal supplied QI-value         = 22.11
 optimisation between [QCUT,QGAM] = [ 11.50, 23.22] = [ 37.02,150.92] Ry
 Optimized for a Real-space Cutoff    1.08 Angstroem

   l    n(q)    QCUT    max X(q) W(low)/X(q) W(high)/X(q)  e(spline)
   0      7    11.497    10.506    0.36E-04    0.62E-04    0.14E-07
   0      7    11.497     8.367    0.65E-04    0.14E-03    0.28E-07
   1      7    11.497     8.983    0.21E-03    0.43E-03    0.90E-07
 Optimization of the real space projectors (new method)

[...]

   l    n(q)    QCUT    max X(q) W(low)/X(q) W(high)/X(q)  e(spline)
   0      8    11.508   160.924    0.96E-04    0.17E-03    0.52E-07
   0      8    11.508   130.086    0.95E-04    0.17E-03    0.51E-07
   1      8    11.508    74.434    0.16E-03    0.74E-04    0.91E-07
   1      8    11.508    49.120    0.16E-03    0.71E-04    0.89E-07
 Optimization of the real space projectors (new method)

 maximal supplied QI-value         = 24.76
 optimisation between [QCUT,QGAM] = [ 11.64, 23.27] = [ 37.91,151.63] Ry
 Optimized for a Real-space Cutoff    1.14 Angstroem

   l    n(q)    QCUT    max X(q) W(low)/X(q) W(high)/X(q)  e(spline)
   0      8    11.635    20.381    0.10E-03    0.33E-03    0.24E-06
   0      8    11.635    15.268    0.11E-03    0.35E-03    0.26E-06
   1      7    11.635     5.964    0.24E-03    0.31E-03    0.30E-06
   1      7    11.635     5.382    0.22E-03    0.25E-03    0.26E-06
  PAW_PBE Li_sv 10Sep2004               :
  PAW_PBE P 06Sep2000                   :
  PAW_PBE O 08Apr2002                   :

 POSCAR: Li6 P2 O8
  positions in direct lattice
 exchange correlation table for  LEXCH =        8
   RHO(1)=    0.500       N(1)  =     2000
   RHO(2)=  100.500       N(2)  =     4000

 ion  position               nearest neighbor table
   1  0.509  0.845  0.000-  12 1.98  15 2.02  13 2.05  16 2.05
   2  0.009  0.155  0.500-  11 1.98  10 2.02   9 2.05  14 2.05
   3  0.508  0.326  0.253-  12 1.95  13 1.98  10 1.98  14 2.00
   4  0.008  0.674  0.247-  11 1.95  14 1.98  15 1.98  13 2.00
   5  0.008  0.674  0.753-  11 1.95   9 1.98  15 1.98  16 2.00
   6  0.508  0.326  0.747-  12 1.95  16 1.98  10 1.98   9 2.00
   7  0.501  0.824  0.500-  11 1.56  10 1.56  13 1.56  16 1.56
   8  0.001  0.176  0.000-  12 1.56  15 1.56  14 1.56   9 1.56
   9  0.107  0.314  0.793-   8 1.56   5 1.98   6 2.00   2 2.05
  10  0.602  0.104  0.500-   7 1.56   6 1.98   3 1.98   2 2.02
  11  0.185  0.818  0.500-   7 1.56   5 1.95   4 1.95   2 1.98
  12  0.685  0.182  0.000-   8 1.56   6 1.95   3 1.95   1 1.98
  13  0.607  0.686  0.293-   7 1.56   3 1.98   4 2.00   1 2.05
  14  0.107  0.314  0.207-   8 1.56   4 1.98   3 2.00   2 2.05
  15  0.102  0.896  0.000-   8 1.56   5 1.98   4 1.98   1 2.02
  16  0.607  0.686  0.707-   7 1.56   6 1.98   5 2.00   1 2.05

  LATTYP: Found a simple orthorhombic cell.
 ALAT       =     4.9224480000
 B/A-ratio  =     1.0759691113
 C/A-ratio  =     1.2546879114

  Lattice vectors:

 A1 = (   4.9224480000,   0.0000000000,   0.0000000000)
 A2 = (   0.0000000000,   5.2964020000,   0.0000000000)
 A3 = (   0.0000000000,   0.0000000000,   6.1761360000)

Analysis of symmetry for initial positions (statically):
 Subroutine PRICEL returns:
 Original cell was already a primitive cell.

 Routine SETGRP: Setting up the symmetry group for a
 simple orthorhombic supercell.

 Subroutine GETGRP returns: Found  4 space group operations
 (whereof  2 operations were pure point group operations)
 out of a pool of  8 trial point group operations.

The static configuration has the point symmetry C_1h.
 The point group associated with its full space group is C_2v.

Analysis of symmetry for dynamics (positions and initial velocities):
 Subroutine PRICEL returns:
 Original cell was already a primitive cell.

[...]

The dynamic configuration has the point symmetry C_1h.
 The point group associated with its full space group is C_2v.

Analysis of structural, dynamic, and magnetic symmetry:
 Subroutine PRICEL returns:
 Original cell was already a primitive cell.

 Routine SETGRP: Setting up the symmetry group for a
 simple orthorhombic supercell.

 Subroutine GETGRP returns: Found  4 space group operations
 (whereof  2 operations were pure point group operations)
 out of a pool of  8 trial point group operations.

The magnetic configuration has the point symmetry C_1h.
 The point group associated with its full space group is C_2v.

 Subroutine INISYM returns: Found  4 space group operations
 (whereof  2 operations are pure point group operations),
 and found     1 'primitive' translations

 KPOINTS: Fully automatic kpoint scheme

Automatic generation of k-mesh.
 generate k-points for:    7    6    5
Space group operators:
 irot       det(A)        alpha          n_x          n_y          n_z        tau_x        tau_y        tau_z
    1     1.000000     0.000001     1.000000     0.000000     0.000000     0.000000     0.000000     0.000000
    2    -1.000000   180.000000     0.000000     0.000000     1.000000     0.000000     0.000000     0.000000
    3    -1.000000   180.000000     0.000000     1.000000     0.000000     0.500000     0.000000     0.500000
    4     1.000000   180.000000     1.000000     0.000000     0.000000     0.500000     0.000000     0.500000

 Subroutine IBZKPT returns following result:

 Found     48 irreducible k-points:

 Following reciprocal coordinates:
            Coordinates               Weight
  0.000000  0.000000  0.000000      1.000000
  0.142857  0.000000  0.000000      2.000000
  0.285714  0.000000  0.000000      2.000000
  0.428571  0.000000  0.000000      2.000000
  0.000000  0.166667  0.000000      2.000000
  0.142857  0.166667  0.000000      4.000000
  0.285714  0.166667  0.000000      4.000000
  0.428571  0.166667  0.000000      4.000000
  0.000000  0.333333  0.000000      2.000000
  0.142857  0.333333  0.000000      4.000000
  0.285714  0.333333  0.000000      4.000000
  0.428571  0.333333  0.000000      4.000000
  0.000000  0.500000  0.000000      1.000000
  0.142857  0.500000  0.000000      2.000000
  0.285714  0.500000  0.000000      2.000000
  0.428571  0.500000  0.000000      2.000000
  0.000000  0.000000  0.200000      2.000000
  0.142857  0.000000  0.200000      4.000000
  0.285714  0.000000  0.200000      4.000000
  0.428571  0.000000  0.200000      4.000000
  0.000000  0.166667  0.200000      4.000000
  0.142857  0.166667  0.200000      8.000000
  0.285714  0.166667  0.200000      8.000000
  0.428571  0.166667  0.200000      8.000000
  0.000000  0.333333  0.200000      4.000000
  0.142857  0.333333  0.200000      8.000000
  0.285714  0.333333  0.200000      8.000000
  0.428571  0.333333  0.200000      8.000000
  0.000000  0.500000  0.200000      2.000000
  0.142857  0.500000  0.200000      4.000000
  0.285714  0.500000  0.200000      4.000000
  0.428571  0.500000  0.200000      4.000000
  0.000000  0.000000  0.400000      2.000000
  0.142857  0.000000  0.400000      4.000000
  0.285714  0.000000  0.400000      4.000000
  0.428571  0.000000  0.400000      4.000000
  0.000000  0.166667  0.400000      4.000000
  0.142857  0.166667  0.400000      8.000000
  0.285714  0.166667  0.400000      8.000000
  0.428571  0.166667  0.400000      8.000000
  0.000000  0.333333  0.400000      4.000000
  0.142857  0.333333  0.400000      8.000000
  0.285714  0.333333  0.400000      8.000000
  0.428571  0.333333  0.400000      8.000000
  0.000000  0.500000  0.400000      2.000000
  0.142857  0.500000  0.400000      4.000000
  0.285714  0.500000  0.400000      4.000000
  0.428571  0.500000  0.400000      4.000000

 Following cartesian coordinates:
            Coordinates               Weight
  0.000000  0.000000  0.000000      1.000000
  0.029022  0.000000  0.000000      2.000000
  0.058043  0.000000  0.000000      2.000000
  0.087065  0.000000  0.000000      2.000000
  0.000000  0.031468  0.000000      2.000000
  0.029022  0.031468  0.000000      4.000000
  0.058043  0.031468  0.000000      4.000000
  0.087065  0.031468  0.000000      4.000000
  0.000000  0.062936  0.000000      2.000000
  0.029022  0.062936  0.000000      4.000000
  0.058043  0.062936  0.000000      4.000000
  0.087065  0.062936  0.000000      4.000000
  0.000000  0.094404  0.000000      1.000000
  0.029022  0.094404  0.000000      2.000000
  0.058043  0.094404  0.000000      2.000000
  0.087065  0.094404  0.000000      2.000000
  0.000000  0.000000  0.032383      2.000000
  0.029022  0.000000  0.032383      4.000000
  0.058043  0.000000  0.032383      4.000000
  0.087065  0.000000  0.032383      4.000000
  0.000000  0.031468  0.032383      4.000000
  0.029022  0.031468  0.032383      8.000000
  0.058043  0.031468  0.032383      8.000000
  0.087065  0.031468  0.032383      8.000000
  0.000000  0.062936  0.032383      4.000000
  0.029022  0.062936  0.032383      8.000000
  0.058043  0.062936  0.032383      8.000000
  0.087065  0.062936  0.032383      8.000000
  0.000000  0.094404  0.032383      2.000000
  0.029022  0.094404  0.032383      4.000000
  0.058043  0.094404  0.032383      4.000000
  0.087065  0.094404  0.032383      4.000000
  0.000000  0.000000  0.064765      2.000000
  0.029022  0.000000  0.064765      4.000000
  0.058043  0.000000  0.064765      4.000000
  0.087065  0.000000  0.064765      4.000000
  0.000000  0.031468  0.064765      4.000000
  0.029022  0.031468  0.064765      8.000000
  0.058043  0.031468  0.064765      8.000000
  0.087065  0.031468  0.064765      8.000000
  0.000000  0.062936  0.064765      4.000000
  0.029022  0.062936  0.064765      8.000000
  0.058043  0.062936  0.064765      8.000000
  0.087065  0.062936  0.064765      8.000000
  0.000000  0.094404  0.064765      2.000000
  0.029022  0.094404  0.064765      4.000000
  0.058043  0.094404  0.064765      4.000000
  0.087065  0.094404  0.064765      4.000000

 TETIRR: Found    621 inequivalent tetrahedra from     1260

 SYSTEM =  unknown system
 POSCAR =  Li6 P2 O8

 Startparameter for this run:
   NWRITE =      2    write-flag & timer
   PREC   = accura    normal or accurate (medium, high low for compatibility)
   ISTART =      0    job   : 0-new  1-cont  2-samecut
   ICHARG =      2    charge: 1-file 2-atom 10-const
   ISPIN  =      2    spin polarized calculation?
   LNONCOLLINEAR =      F non collinear calculations
   LSORBIT =      F    spin-orbit coupling
[...]
     4.922448000  0.000000000  0.000000000     0.203150953  0.000000000  0.000000000
     0.000000000  5.296402000  0.000000000     0.000000000  0.188807421  0.000000000
     0.000000000  0.000000000  6.176136000     0.000000000  0.000000000  0.161913533

[...]

 FORCES acting on ions
    electron-ion (+dipol)            ewald-force                    non-local-force                 convergence-correction
   0.494E+00 0.290E+02 0.328E-05   -.629E+00 -.282E+02 -.711E-14   0.135E+00 -.853E+00 0.000E+00   -.963E-04 0.375E-03 -.430E-14
   0.494E+00 -.290E+02 0.165E-05   -.629E+00 0.282E+02 -.178E-14   0.135E+00 0.853E+00 0.000E+00   -.963E-04 -.375E-03 0.322E-14
   0.269E+01 -.153E+02 -.514E+01   -.261E+01 0.151E+02 0.484E+01   -.662E-01 0.254E+00 0.288E+00   -.137E-03 -.917E-04 0.426E-04
   0.269E+01 0.153E+02 0.514E+01   -.261E+01 -.151E+02 -.484E+01   -.662E-01 -.254E+00 -.288E+00   -.137E-03 0.917E-04 -.426E-04
   0.269E+01 0.153E+02 -.514E+01   -.261E+01 -.151E+02 0.484E+01   -.662E-01 -.254E+00 0.288E+00   -.137E-03 0.917E-04 0.426E-04
   0.269E+01 -.153E+02 0.514E+01   -.261E+01 0.151E+02 -.484E+01   -.662E-01 0.254E+00 -.288E+00   -.137E-03 -.917E-04 -.426E-04
   -.450E+01 0.110E+02 -.179E-06   0.401E+01 -.110E+02 0.000E+00   0.499E+00 -.306E-01 0.000E+00   0.132E-03 -.201E-03 -.397E-14
   -.450E+01 -.110E+02 -.338E-06   0.401E+01 0.110E+02 -.284E-13   0.499E+00 0.306E-01 0.000E+00   0.132E-03 0.201E-03 0.157E-13
   -.367E+02 -.719E+02 0.102E+03   0.471E+02 0.864E+02 -.128E+03   -.104E+02 -.145E+02 0.257E+02   0.426E-03 0.923E-04 0.520E-03
   -.378E+02 -.122E+03 0.133E-05   0.480E+02 0.152E+03 -.711E-14   -.102E+02 -.295E+02 0.000E+00   -.201E-03 0.105E-03 0.420E-13
   0.109E+03 0.219E+02 -.236E-06   -.140E+03 -.227E+02 -.711E-14   0.314E+02 0.775E+00 0.000E+00   0.168E-03 -.344E-03 -.475E-13
   0.109E+03 -.219E+02 -.619E-06   -.140E+03 0.227E+02 -.284E-13   0.314E+02 -.775E+00 0.000E+00   0.168E-03 0.344E-03 -.109E-13
   -.367E+02 0.719E+02 0.102E+03   0.471E+02 -.864E+02 -.128E+03   -.104E+02 0.145E+02 0.257E+02   0.426E-03 -.923E-04 0.520E-03
   -.367E+02 -.719E+02 -.102E+03   0.471E+02 0.864E+02 0.128E+03   -.104E+02 -.145E+02 -.257E+02   0.426E-03 0.923E-04 -.520E-03
   -.378E+02 0.122E+03 -.659E-06   0.480E+02 -.152E+03 0.142E-13   -.102E+02 0.295E+02 0.000E+00   -.201E-03 -.105E-03 0.207E-13
   -.367E+02 0.719E+02 -.102E+03   0.471E+02 -.864E+02 0.128E+03   -.104E+02 0.145E+02 -.257E+02   0.426E-03 -.923E-04 -.520E-03
   -.186E+01 0.711E-11 0.118E-04   -.711E-14 0.284E-13 0.142E-13   0.187E+01 0.355E-14 0.355E-14   0.116E-02 0.248E-13 0.521E-13

 POSITION                                       TOTAL-FORCE (eV/Angst)
      2.50758      4.47292      0.00000        -0.000517      0.028997      0.000000
      0.04635      0.82348      3.08807        -0.000517     -0.028997      0.000000
      2.50239      1.72893      1.56178         0.008618     -0.008380     -0.012594
      0.04117      3.56748      1.52629         0.008618      0.008380      0.012594
      0.04117      3.56748      4.64985         0.008618      0.008380     -0.012594
      2.50239      1.72893      4.61436         0.008618     -0.008380      0.012594
      2.46821      4.36562      3.08807         0.005771     -0.002330      0.000000
      0.00699      0.93078      0.00000         0.005771      0.002330      0.000000
      0.52675      1.66047      4.89682         0.023318      0.035938     -0.051304
      2.96393      0.54822      3.08807         0.028053      0.071694      0.000000
      0.91159      4.33455      3.08807        -0.097179      0.006220      0.000000
      3.37282      0.96185      0.00000        -0.097179     -0.006220      0.000000
      2.98798      3.63593      1.80876         0.023318     -0.035938     -0.051304
      0.52675      1.66047      1.27931         0.023318      0.035938      0.051304
      0.50271      4.74818      0.00000         0.028053     -0.071694      0.000000
      2.98798      3.63593      4.36738         0.023318     -0.035938      0.051304
    total drift:                                0.011313      0.000000      0.000012

  FREE ENERGIE OF THE ION-ELECTRON SYSTEM (eV)
  free  energy   TOTEN  =      -100.67718504 eV

  energy  without entropy=     -100.67718504  energy(sigma->0) =     -100.67718504

[...]

 d Force = 0.1728620E-02[ 0.971E-03, 0.249E-02]  d Energy = 0.5392114E-02-0.366E-02
 d Force = 0.4416004E+01[ 0.440E+01, 0.444E+01]  d Ewald  = 0.1163924E+02-0.722E+01

 Steepest descent step on ions:
 trial-energy change:   -0.005392  1 .order   -0.005463   -0.007526   -0.003399
  (g-gl).g = 0.753E-02      g.g   = 0.753E-02  gl.gl    = 0.000E+00
 g(Force)  = 0.249E-02   g(Stress)= 0.503E-02 ortho     = 0.000E+00
 gamma     =   0.00000
 trial     =   1.00000
 opt step  =   2.04156  (harmonic =   1.82351) maximal distance =0.00706115
 next E    =  -100.684268   (d E  =  -0.00708)

[...]

 d Force = 0.1351366E-03[-0.741E-03, 0.101E-02]  d Energy = 0.1405147E-02-0.127E-02
 d Force = 0.4556776E+01[ 0.454E+01, 0.458E+01]  d Ewald  = 0.1212558E+02-0.757E+01

[...]

 d Force =-0.2400914E-02[-0.649E-02, 0.169E-02]  d Energy =-0.3093086E-02 0.692E-03
 d Force = 0.1143474E+01[ 0.111E+01, 0.118E+01]  d Ewald  = 0.4226801E+01-0.308E+01

 Conjugate gradient step on ions:
 trial-energy change:    0.003093  1 .order    0.003122   -0.002052    0.008296
  (g-gl).g = 0.281E-02      g.g   = 0.200E-02  gl.gl    = 0.753E-02
 g(Force)  = 0.167E-02   g(Stress)= 0.335E-03 ortho     =-0.812E-03
 gamma     =   0.37390
 trial     =   1.20831
 opt step  =   0.23963  (harmonic =   0.23963) maximal distance =0.00057849
 next E    =  -100.684186   (d E  =  -0.00020)

 real space projection operators:
  max/ min on nodes  :        442.73        351.35

[...]

 eigenvalue-minimisations  :  9792
 total energy-change (2. order) :-0.5335673E-02  (-0.3398039E-01)
 number of electron      76.0000030 magnetization       0.0000000
 augmentation part       10.0936809 magnetization      -0.0000034

[...]

WARNING in EDDRMM: call to ZHEGV failed, returncode =   6  3      5
 BZINTS: Fermi energy:  1.307086; 76.000000 electrons
         Band energy:-818.130739;  BLOECHL correction:  0.000000

[...]

 Broyden mixing:
  rms(total) = 0.10963E-02    rms(broyden)= 0.10960E-02
  rms(prec ) = 0.14309E-02
  weight for this iteration     100.00

 eigenvalues of (default mixing * dielectric matrix)
  average eigenvalue GAMMA=   1.5171
  2.0432  1.9537  0.9414  1.1300

[...]

--------------------------------------- Iteration      5(   6)  ---------------------------------------

[...]

 eigenvalue-minimisations  :  5591
 total energy-change (2. order) : 0.2332285E-05  (-0.4722408E-06)
 number of electron      76.0000029 magnetization       0.0000000
 augmentation part       10.0749689 magnetization      -0.0000015

 Free energy of the ion-electron system (eV)
  alpha Z        PSCENC =       129.96263975
  Ewald energy   TEWEN  =     -3223.15613693
  -Hartree energ DENC   =     -1439.83014436
  -exchange      EXHF   =         0.00000000
  -V(xc)+E(xc)   XCENC  =       317.07434769
  PAW double counting   =      8851.68547755    -8945.88129045
  entropy T*S    EENTRO =         0.00000000
  eigenvalues    EBANDS =      -818.12395882
  atomic energy  EATOM  =      5027.58486670
  Solvation  Ediel_sol  =         0.00000000
  free energy    TOTEN  =      -100.68419886 eV

  energy without entropy =     -100.68419886  energy(sigma->0) =     -100.68419886

 average (electrostatic) potential at core
  the test charge radii are     0.7079  0.9587  0.7215
  (the norm of the test charge is              1.0000)
       1 -60.2705       2 -60.2705       3 -59.9399       4 -59.9399       5 -59.9399
       6 -59.9399       7 -87.0212       8 -87.0212       9 -71.9412      10 -71.9457
      11 -71.8967      12 -71.8967      13 -71.9412      14 -71.9412      15 -71.9457
      16 -71.9412

 E-fermi :   1.3070     XC(G=0):  -9.5594     alpha+bet :-12.2112

[...]

 spin component 2

[...]

 k-point    48 :       0.4286    0.5000    0.4000
  band No.  band energies     occupation
      1     -41.1857      1.00000
      2     -41.1857      1.00000
      3     -40.8578      1.00000
      4     -40.8559      1.00000
      5     -40.8550      1.00000
      6     -40.8532      1.00000
      7     -18.2805      1.00000
      8     -18.2724      1.00000
      9     -15.8762      1.00000
     10     -15.8754      1.00000
     11     -15.8536      1.00000
     12     -15.8343      1.00000
     13     -15.8071      1.00000
     14     -15.7991      1.00000
     15      -5.4721      1.00000
     16      -5.4718      1.00000
     17      -3.2394      1.00000
     18      -3.2389      1.00000
     19      -2.9979      1.00000
     20      -2.9914      1.00000
     21      -2.7656      1.00000
     22      -2.7655      1.00000
     23      -1.4614      1.00000
     24      -1.4268      1.00000
     25      -1.3340      1.00000
     26      -1.3291      1.00000
     27      -0.7869      1.00000
     28      -0.7791      1.00000
     29      -0.4806      1.00000
     30      -0.4696      1.00000
     31      -0.2527      1.00000
     32      -0.2068      1.00000
     33       0.7892      1.00000
     34       0.8156      1.00000
     35       0.9581      1.00000
     36       0.9711      1.00000
     37       1.0619      1.00000
     38       1.0976      1.00000
     39       9.3616      0.00000
     40       9.5017      0.00000
     41       9.6721      0.00000
     42       9.8740      0.00000
     43      10.1632      0.00000
     44      10.2610      0.00000
     45      10.4121      0.00000
     46      10.5202      0.00000
     47      11.8321      0.00000
     48      11.8782      0.00000

[...]

 soft charge-density along one line, spin component           2
         0         1         2         3         4         5         6         7         8         9
 total charge-density along one line

------------------------ aborting loop because EDIFF is reached ----------------------------------------

[...]

  FORCE on cell =-STRESS in cart. coord.  units (eV):
  Direction    XX          YY          ZZ          XY          YZ          ZX
  Alpha Z   129.96264   129.96264   129.96264
  Ewald   -1023.04017 -1129.77123 -1070.35218     0.00000    -0.00000     0.00000
  Hartree   520.51288   436.10982   483.19148    -0.00000    -0.00000    -0.00000
  E(xc)    -363.33755  -363.38498  -363.35276     0.00000    -0.00000     0.00000
  Local    -629.25089  -437.12581  -544.55770     0.00000     0.00000    -0.00000
  n-local  -199.52284  -200.16656  -200.16369     0.05094     0.00083     0.01484
  augment   142.29703   142.25907   142.31464    -0.00000     0.00000    -0.00000
  Kinetic  1422.34054  1422.17582  1423.04175    -0.30613    -0.01728    -0.04594
  Fock        0.00000     0.00000     0.00000     0.00000     0.00000     0.00000
  Total      -0.03835     0.05876     0.08417     0.00000     0.00000     0.00000
  in kB      -0.38710     0.59318     0.84964     0.00000     0.00000     0.00000

 VOLUME and BASIS-vectors are now :
  energy-cutoff  :      520.00
  volume of cell :      158.72
      direct lattice vectors                 reciprocal lattice vectors
     4.898553297  0.000000000  0.000000000     0.204141905  0.000000000  0.000000000
     0.000000000  5.271135641  0.000000000     0.000000000  0.189712439  0.000000000
     0.000000000  0.000000000  6.146941705     0.000000000  0.000000000  0.162682525

  length of vectors
     4.898553297  5.271135641  6.146941705     0.204141905  0.189712439  0.162682525

 FORCES acting on ions
    electron-ion (+dipol)            ewald-force                    non-local-force                 convergence-correction
   0.413E+00 0.292E+02 0.401E-05   -.550E+00 -.283E+02 -.711E-14   0.139E+00 -.861E+00 0.000E+00   -.298E-03 -.715E-03 0.148E-12
   0.413E+00 -.292E+02 0.970E-06   -.550E+00 0.283E+02 0.711E-14   0.139E+00 0.861E+00 0.000E+00   -.298E-03 0.715E-03 -.946E-13
   0.276E+01 -.153E+02 -.535E+01   -.269E+01 0.151E+02 0.505E+01   -.678E-01 0.253E+00 0.296E+00   -.366E-03 0.570E-03 0.237E-03
   0.276E+01 0.153E+02 0.535E+01   -.269E+01 -.151E+02 -.505E+01   -.678E-01 -.253E+00 -.296E+00   -.366E-03 -.570E-03 -.237E-03
   0.276E+01 0.153E+02 -.535E+01   -.269E+01 -.151E+02 0.505E+01   -.678E-01 -.253E+00 0.296E+00   -.366E-03 -.570E-03 0.237E-03
   0.276E+01 -.153E+02 0.535E+01   -.269E+01 0.151E+02 -.505E+01   -.678E-01 0.253E+00 -.296E+00   -.366E-03 0.570E-03 -.237E-03
   -.404E+01 0.108E+02 -.117E-06   0.362E+01 -.108E+02 -.284E-13   0.415E+00 0.222E-02 0.000E+00   0.880E-03 -.610E-03 -.201E-12
   -.404E+01 -.108E+02 -.299E-06   0.362E+01 0.108E+02 -.355E-14   0.415E+00 -.222E-02 0.000E+00   0.880E-03 0.610E-03 0.164E-12
   -.358E+02 -.706E+02 0.100E+03   0.462E+02 0.851E+02 -.126E+03   -.104E+02 -.146E+02 0.257E+02   0.132E-02 0.229E-02 -.258E-02
   -.369E+02 -.120E+03 0.107E-05   0.471E+02 0.150E+03 0.000E+00   -.102E+02 -.296E+02 0.000E+00   0.134E-02 0.345E-02 -.245E-12
   0.106E+03 0.217E+02 -.412E-06   -.137E+03 -.224E+02 -.711E-14   0.313E+02 0.795E+00 0.000E+00   -.202E-02 -.505E-03 -.210E-12
   0.106E+03 -.217E+02 -.611E-06   -.137E+03 0.224E+02 -.142E-13   0.313E+02 -.795E+00 0.000E+00   -.202E-02 0.505E-03 0.350E-12
   -.358E+02 0.706E+02 0.100E+03   0.462E+02 -.851E+02 -.126E+03   -.104E+02 0.146E+02 0.257E+02   0.132E-02 -.229E-02 -.258E-02
   -.358E+02 -.706E+02 -.100E+03   0.462E+02 0.851E+02 0.126E+03   -.104E+02 -.146E+02 -.257E+02   0.132E-02 0.229E-02 0.258E-02
   -.369E+02 0.120E+03 -.470E-06   0.471E+02 -.150E+03 -.711E-14   -.102E+02 0.296E+02 0.000E+00   0.134E-02 -.345E-02 0.222E-12
   -.358E+02 0.706E+02 -.100E+03   0.462E+02 -.851E+02 0.126E+03   -.104E+02 0.146E+02 -.257E+02   0.132E-02 -.229E-02 0.258E-02
   -.143E+01 0.958E-11 0.120E-04   0.000E+00 0.142E-13 -.284E-13   0.145E+01 0.178E-14 0.355E-14   0.362E-02 0.587E-13 0.204E-13

 POSITION                                       TOTAL-FORCE (eV/Angst)
      2.49536      4.45443      0.00000         0.000415     -0.013033      0.000000
      0.04609      0.81670      3.07347         0.000415      0.013033      0.000000
      2.49116      1.71994      1.55311         0.002673      0.011239      0.001624
      0.04188      3.55120      1.52036         0.002673     -0.011239     -0.001624
      0.04188      3.55120      4.62658         0.002673     -0.011239      0.001624
      2.49116      1.71994      4.59383         0.002673      0.011239     -0.001624
      2.45585      4.34481      3.07347         0.003301     -0.001313      0.000000
      0.00657      0.92633      0.00000         0.003301      0.001313      0.000000
      0.52656      1.65625      4.86810        -0.011695     -0.011403     -0.006104
      2.95235      0.55282      3.07347        -0.007071     -0.011637      0.000000
      0.89821      4.31464      3.07347         0.021399      0.010683      0.000000
      3.34748      0.95649      0.00000         0.021399     -0.010683      0.000000
      2.97584      3.61488      1.79463        -0.011695      0.011403     -0.006104
      0.52656      1.65625      1.27884        -0.011695     -0.011403      0.006104
      0.50308      4.71832      0.00000        -0.007071      0.011637      0.000000
      2.97584      3.61488      4.35231        -0.011695      0.011403      0.006104
    total drift:                                0.023448      0.000000      0.000012

  FREE ENERGIE OF THE ION-ELECTRON SYSTEM (eV)
  free  energy   TOTEN  =      -100.68419886 eV

  energy  without entropy=     -100.68419886  energy(sigma->0) =     -100.68419886

 d Force = 0.2566832E-02[-0.856E-04, 0.522E-02]  d Energy = 0.3309645E-02-0.743E-03
 d Force =-0.9107595E+00[-0.931E+00,-0.890E+00]  d Ewald  =-0.3382763E+01 0.247E+01

 reached required accuracy - stopping structural energy minimisation

 total charge

[...]

 magnetization (x)

# of ion       s       p       d       tot
    1        0.000  -0.000   0.000  -0.000
    2        0.000  -0.000   0.000  -0.000
    3        0.000  -0.000   0.000   0.000
    4        0.000  -0.000   0.000   0.000
    5        0.000  -0.000   0.000   0.000
    6        0.000  -0.000   0.000   0.000
    7        0.000   0.000   0.000   0.000
    8        0.000   0.000   0.000   0.000
    9       -0.000  -0.000   0.000  -0.000
   10        0.000  -0.000   0.000  -0.000
   11        0.000  -0.000   0.000  -0.000
   12        0.000  -0.000   0.000  -0.000
   13       -0.000  -0.000   0.000  -0.000
   14       -0.000  -0.000   0.000  -0.000
   15        0.000  -0.000   0.000  -0.000
   16       -0.000  -0.000   0.000  -0.000
tot          0.000  -0.000   0.000  -0.000

 BZINTS: Fermi energy:  1.306954; 76.000000 electrons
         Band energy:-818.123959;  BLOECHL correction:  0.000000