 vasp.5.4.4.18Apr17-6-g9f103f2a35 (build Aug 12 2020 11:57:02) complex

 executed on             LinuxIFC date 2021.01.31  03:45:37

 INCAR:
 POTCAR:    PAW_PBE Li_sv 10Sep2004
 POTCAR:    PAW_PBE P 06Sep2000
 POTCAR:    PAW_PBE N 08Apr2002
 POTCAR:    PAW_PBE Li_sv 10Sep2004
   VRHFIN =Li: 1s2s2p

   TITEL  = PAW_PBE Li_sv 10Sep2004
   POMASS =    7.010; ZVAL   =    3.000    mass and valenz
   ENMAX  =  499.034; ENMIN  =  374.276 eV

 POTCAR:    PAW_PBE P 06Sep2000
   VRHFIN =P : s2p3

   TITEL  = PAW_PBE P 06Sep2000
   POMASS =   30.974; ZVAL   =    5.000    mass and valenz
   ENMAX  =  255.040; ENMIN  =  191.280 eV

 POTCAR:    PAW_PBE N 08Apr2002
   VRHFIN =N: s2p3

   TITEL  = PAW_PBE N 08Apr2002
   POMASS =   14.001; ZVAL   =    5.000    mass and valenz
   ENMAX  =  400.000; ENMIN  =  300.000 eV

 Optimization of the real space projectors (new method)

 maximal supplied QI-value         = 22.11
 optimisation between [QCUT,QGAM] = [ 11.50, 23.22] = [ 37.02,150.92] Ry
 Optimized for a Real-space Cutoff    1.08 Angstroem

   l    n(q)    QCUT    max X(q) W(low)/X(q) W(high)/X(q)  e(spline)
   0      7    11.497    10.506    0.36E-04    0.62E-04    0.14E-07
   0      7    11.497     8.367    0.65E-04    0.14E-03    0.28E-07
   1      7    11.497     8.983    0.21E-03    0.43E-03    0.90E-07
 Optimization of the real space projectors (new method)

[...]

   l    n(q)    QCUT    max X(q) W(low)/X(q) W(high)/X(q)  e(spline)
   0      8    11.508   160.924    0.96E-04    0.17E-03    0.52E-07
   0      8    11.508   130.086    0.95E-04    0.17E-03    0.51E-07
   1      8    11.508    74.434    0.16E-03    0.74E-04    0.91E-07
   1      8    11.508    49.120    0.16E-03    0.71E-04    0.89E-07
 Optimization of the real space projectors (new method)

 maximal supplied QI-value         = 25.13
 optimisation between [QCUT,QGAM] = [ 11.56, 23.12] = [ 37.43,149.72] Ry
 Optimized for a Real-space Cutoff    1.40 Angstroem

   l    n(q)    QCUT    max X(q) W(low)/X(q) W(high)/X(q)  e(spline)
   0     10    11.561    79.467    0.46E-04    0.78E-04    0.61E-06
   0     10    11.561    66.151    0.45E-04    0.77E-04    0.61E-06
   1      9    11.561    18.886    0.22E-03    0.13E-03    0.12E-05
   1      9    11.561    13.488    0.23E-03    0.13E-03    0.12E-05
  PAW_PBE Li_sv 10Sep2004               :
  PAW_PBE P 06Sep2000                   :
  PAW_PBE N 08Apr2002                   :

 POSCAR: Li56 P8 N32
  positions in direct lattice
 exchange correlation table for  LEXCH =        8
   RHO(1)=    0.500       N(1)  =     2000
   RHO(2)=  100.500       N(2)  =     4000

 ion  position               nearest neighbor table
   1  0.000  0.500  0.500-  80 1.99  83 1.99  85 1.99  86 1.99  46 2.22  56 2.22   8 2.35   9 2.35
                            62 2.35  63 2.35
   2  0.500  0.000  0.000-  76 1.99  77 1.99  93 1.99  94 1.99  45 2.22  55 2.22  10 2.35  11 2.35
                            59 2.35  64 2.35
   3  0.000  0.000  0.500-  78 1.99  79 1.99  91 1.99  92 1.99  52 2.22  54 2.22   7 2.35  12 2.35
                            62 2.35  63 2.35
   4  0.000  0.500  0.000-  74 1.99  75 1.99  95 1.99  96 1.99  51 2.22  53 2.22   8 2.35   9 2.35
                            60 2.35  61 2.35
   5  0.500  0.000  0.500-  81 1.99  82 1.99  84 1.99  87 1.99  49 2.22  50 2.22   7 2.35  12 2.35
                            59 2.35  64 2.35
   6  0.500  0.500  0.000-  73 1.99  88 1.99  89 1.99  90 1.99  47 2.22  48 2.22  10 2.35  11 2.35
                            60 2.35  61 2.35
   7  0.250  0.000  0.500-  79 2.12  91 2.12  87 2.12  81 2.12  27 2.33  29 2.33  35 2.33  39 2.33
                             3 2.35   5 2.35
   8  0.000  0.500  0.750-  75 2.12  83 2.12  86 2.12  96 2.12  23 2.33  31 2.33  34 2.33  44 2.33
                             1 2.35   4 2.35
   9  0.000  0.500  0.250-  74 2.12  80 2.12  85 2.12  95 2.12  22 2.33  28 2.33  33 2.33  43 2.33
                             1 2.35   4 2.35
  10  0.500  0.250  0.000-  73 2.12  89 2.12  77 2.12  76 2.12  21 2.33  24 2.33  25 2.33  37 2.33
                             2 2.35   6 2.35
  11  0.500  0.750  0.000-  88 2.12  90 2.12  93 2.12  94 2.12  36 2.33  38 2.33  41 2.33  42 2.33
                             2 2.35   6 2.35
  12  0.750  0.000  0.500-  78 2.12  92 2.12  84 2.12  82 2.12  26 2.33  30 2.33  32 2.33  40 2.33
                             3 2.35   5 2.35
  13  0.225  0.225  0.225-  72 1.99  28 2.37  29 2.37  21 2.37  25 2.38  39 2.38  22 2.38
  14  0.275  0.725  0.275-  71 1.99  27 2.37  41 2.37  22 2.37  36 2.38  29 2.38  33 2.38
  15  0.275  0.275  0.725-  70 1.99  24 2.37  39 2.37  23 2.37  35 2.38  21 2.38  34 2.38
  16  0.725  0.275  0.275-  69 1.99  26 2.37  43 2.37  25 2.37  37 2.38  28 2.38  30 2.38
  17  0.775  0.775  0.225-  68 1.99  33 2.37  38 2.37  30 2.37  41 2.38  43 2.38  40 2.38
  18  0.225  0.775  0.775-  67 1.99  35 2.37  36 2.37  31 2.37  23 2.38  42 2.38  27 2.38
  19  0.775  0.225  0.775-  66 1.99  34 2.37  37 2.37  32 2.37  24 2.38  44 2.38  26 2.38
  20  0.725  0.725  0.725-  65 1.99  42 2.37  44 2.37  40 2.37  32 2.38  38 2.38  31 2.38
  21  0.253  0.237  0.975-  75 2.00  73 2.05  76 2.16  45 2.24  10 2.33  13 2.37  15 2.38  51 2.41
                            61 2.48
  22  0.247  0.475  0.263-  73 2.00  74 2.05  80 2.16  46 2.24   9 2.33  14 2.37  13 2.38  48 2.41
                            61 2.48
  23  0.247  0.525  0.737-  88 2.00  75 2.05  83 2.16  46 2.24   8 2.33  15 2.37  18 2.38  47 2.41
                            61 2.48
  24  0.525  0.263  0.753-  84 2.00  76 2.05  89 2.16  47 2.24  10 2.33  15 2.37  19 2.38  49 2.41
                            59 2.48
  25  0.475  0.263  0.247-  81 2.00  77 2.05  73 2.16  48 2.24  10 2.33  16 2.37  13 2.38  49 2.41
                            64 2.48
  26  0.737  0.247  0.525-  86 2.00  78 2.05  84 2.16  49 2.24  12 2.33  16 2.37  19 2.38  56 2.41
                            62 2.48
  27  0.263  0.753  0.525-  83 2.00  79 2.05  87 2.16  50 2.24   7 2.33  14 2.37  18 2.38  46 2.41
                            63 2.48
  28  0.975  0.253  0.237-  78 2.00  80 2.05  95 2.16  51 2.24   9 2.33  13 2.37  16 2.38  52 2.41
                            62 2.48
  29  0.237  0.975  0.253-  93 2.00  81 2.05  79 2.16  52 2.24   7 2.33  13 2.37  14 2.38  45 2.41
                            64 2.48
  30  0.763  0.025  0.253-  77 2.00  82 2.05  78 2.16  52 2.24  12 2.33  17 2.37  16 2.38  55 2.41
                            64 2.48
  31  0.975  0.747  0.763-  92 2.00  83 2.05  96 2.16  53 2.24   8 2.33  18 2.37  20 2.38  54 2.41
                            63 2.48
  32  0.763  0.975  0.747-  94 2.00  84 2.05  92 2.16  54 2.24  12 2.33  19 2.37  20 2.38  55 2.41
                            59 2.48
  33  0.025  0.747  0.237-  79 2.00  85 2.05  74 2.16  53 2.24   9 2.33  17 2.37  14 2.38  52 2.41
                            63 2.48
  34  0.025  0.253  0.763-  91 2.00  86 2.05  75 2.16  51 2.24   8 2.33  19 2.37  15 2.38  54 2.41
                            62 2.48
  35  0.237  0.025  0.747-  76 2.00  87 2.05  91 2.16  54 2.24   7 2.33  18 2.37  15 2.38  45 2.41
                            59 2.48
  36  0.253  0.763  0.025-  74 2.00  88 2.05  93 2.16  45 2.24  11 2.33  18 2.37  14 2.38  53 2.41
                            61 2.48
  37  0.747  0.237  0.025-  95 2.00  89 2.05  77 2.16  55 2.24  10 2.33  19 2.37  16 2.38  51 2.41
                            60 2.48
  38  0.747  0.763  0.975-  96 2.00  90 2.05  94 2.16  55 2.24  11 2.33  17 2.37  20 2.38  53 2.41
                            60 2.48
  39  0.263  0.247  0.475-  80 2.00  91 2.05  81 2.16  49 2.24   7 2.33  15 2.37  13 2.38  46 2.41
                            62 2.48
  40  0.737  0.753  0.475-  85 2.00  92 2.05  82 2.16  50 2.24  12 2.33  20 2.37  17 2.38  56 2.41
                            63 2.48
  41  0.525  0.737  0.247-  82 2.00  93 2.05  90 2.16  48 2.24  11 2.33  14 2.37  17 2.38  50 2.41
                            64 2.48
  42  0.475  0.737  0.753-  87 2.00  94 2.05  88 2.16  47 2.24  11 2.33  20 2.37  18 2.38  50 2.41
                            59 2.48
  43  0.753  0.525  0.263-  90 2.00  95 2.05  85 2.16  56 2.24   9 2.33  16 2.37  17 2.38  48 2.41
                            60 2.48
  44  0.753  0.475  0.737-  89 2.00  96 2.05  86 2.16  56 2.24   8 2.33  20 2.37  19 2.38  47 2.41
                            60 2.48
  45  0.264  0.000  0.000-  67 2.05  72 2.05  76 2.18  93 2.18   2 2.22  21 2.24  36 2.24  35 2.41
                            29 2.41  58 2.49
  46  0.236  0.500  0.500-  70 2.05  71 2.05  80 2.18  83 2.18   1 2.22  22 2.24  23 2.24  27 2.41
                            39 2.41  57 2.49
  47  0.500  0.500  0.764-  65 2.05  70 2.05  88 2.18  89 2.18   6 2.22  24 2.24  42 2.24  23 2.41
                            44 2.41  57 2.49
  48  0.500  0.500  0.236-  69 2.05  71 2.05  73 2.18  90 2.18   6 2.22  25 2.24  41 2.24  22 2.41
                            43 2.41  57 2.49
  49  0.500  0.236  0.500-  69 2.05  70 2.05  81 2.18  84 2.18   5 2.22  26 2.24  39 2.24  24 2.41
                            25 2.41  57 2.49
  50  0.500  0.764  0.500-  65 2.05  71 2.05  82 2.18  87 2.18   5 2.22  27 2.24  40 2.24  41 2.41
                            42 2.41  57 2.49
  51  0.000  0.264  0.000-  66 2.05  72 2.05  75 2.18  95 2.18   4 2.22  28 2.24  34 2.24  21 2.41
                            37 2.41  58 2.49
  52  0.000  0.000  0.264-  68 2.05  72 2.05  78 2.18  79 2.18   3 2.22  29 2.24  30 2.24  28 2.41
                            33 2.41  58 2.49
  53  0.000  0.736  0.000-  67 2.05  68 2.05  74 2.18  96 2.18   4 2.22  31 2.24  33 2.24  36 2.41
                            38 2.41  58 2.49
  54  0.000  0.000  0.736-  66 2.05  67 2.05  91 2.18  92 2.18   3 2.22  32 2.24  35 2.24  34 2.41
                            31 2.41  58 2.49
  55  0.736  0.000  0.000-  66 2.05  68 2.05  77 2.18  94 2.18   2 2.22  37 2.24  38 2.24  30 2.41
                            32 2.41  58 2.49
  56  0.764  0.500  0.500-  65 2.05  69 2.05  85 2.18  86 2.18   1 2.22  43 2.24  44 2.24  26 2.41
                            40 2.41  57 2.49
  57  0.500  0.500  0.500-  65 1.68  69 1.68  70 1.68  71 1.68  50 2.49  56 2.49  46 2.49  47 2.49
                            48 2.49  49 2.49
  58  0.000  0.000  0.000-  66 1.68  67 1.68  68 1.68  72 1.68  54 2.49  55 2.49  45 2.49  51 2.49
                            52 2.49  53 2.49
  59  0.500  0.000  0.750-  76 1.70  84 1.70  87 1.70  94 1.70   2 2.35   5 2.35  24 2.48  32 2.48
                            35 2.48  42 2.48
  60  0.750  0.500  0.000-  89 1.70  90 1.70  95 1.70  96 1.70   4 2.35   6 2.35  37 2.48  38 2.48
                            43 2.48  44 2.48
  61  0.250  0.500  0.000-  73 1.70  74 1.70  75 1.70  88 1.70   4 2.35   6 2.35  21 2.48  22 2.48
                            23 2.48  36 2.48
  62  0.000  0.250  0.500-  78 1.70  80 1.70  86 1.70  91 1.70   1 2.35   3 2.35  26 2.48  28 2.48
                            34 2.48  39 2.48
  63  0.000  0.750  0.500-  79 1.70  83 1.70  85 1.70  92 1.70   1 2.35   3 2.35  27 2.48  31 2.48
                            33 2.48  40 2.48
  64  0.500  0.000  0.250-  77 1.70  81 1.70  82 1.70  93 1.70   2 2.35   5 2.35  25 2.48  29 2.48
[...]
   -.263E+02 -.169E+01 -.436E+01   0.244E+02 0.126E+01 0.419E+01   0.186E+01 0.435E+00 0.166E+00   0.131E-02 -.337E-03 0.625E-03
   0.436E+01 -.169E+01 0.263E+02   -.419E+01 0.126E+01 -.244E+02   -.166E+00 0.435E+00 -.186E+01   -.625E-03 -.337E-03 -.131E-02
   0.263E+02 0.436E+01 -.169E+01   -.244E+02 -.419E+01 0.126E+01   -.186E+01 -.166E+00 0.435E+00   -.131E-02 -.625E-03 -.337E-03
   -.263E+02 -.436E+01 -.169E+01   0.244E+02 0.419E+01 0.126E+01   0.186E+01 0.166E+00 0.435E+00   0.131E-02 0.625E-03 -.337E-03
   0.436E+01 0.169E+01 -.263E+02   -.419E+01 -.126E+01 0.244E+02   -.166E+00 -.435E+00 0.186E+01   -.625E-03 0.337E-03 0.131E-02
   -.263E+02 0.436E+01 0.169E+01   0.244E+02 -.419E+01 -.126E+01   0.186E+01 -.166E+00 -.435E+00   0.131E-02 -.625E-03 0.337E-03
   -.436E+01 0.169E+01 0.263E+02   0.419E+01 -.126E+01 -.244E+02   0.166E+00 -.435E+00 -.186E+01   0.625E-03 0.337E-03 -.131E-02
   -.436E+01 -.169E+01 -.263E+02   0.419E+01 0.126E+01 0.244E+02   0.166E+00 0.435E+00 0.186E+01   0.625E-03 -.337E-03 0.131E-02
   0.263E+02 -.436E+01 0.169E+01   -.244E+02 0.419E+01 -.126E+01   -.186E+01 0.166E+00 -.435E+00   -.131E-02 0.625E-03 0.337E-03
   -.169E+01 -.263E+02 -.436E+01   0.126E+01 0.244E+02 0.419E+01   0.435E+00 0.186E+01 0.166E+00   -.337E-03 0.131E-02 0.625E-03
   0.169E+01 0.263E+02 -.436E+01   -.126E+01 -.244E+02 0.419E+01   -.435E+00 -.186E+01 0.166E+00   0.337E-03 -.131E-02 0.625E-03
   0.169E+01 -.263E+02 0.436E+01   -.126E+01 0.244E+02 -.419E+01   -.435E+00 0.186E+01 -.166E+00   0.337E-03 0.131E-02 -.625E-03
   -.263E+02 0.169E+01 0.436E+01   0.244E+02 -.126E+01 -.419E+01   0.186E+01 -.435E+00 -.166E+00   0.131E-02 0.337E-03 -.625E-03
   0.263E+02 -.169E+01 0.436E+01   -.244E+02 0.126E+01 -.419E+01   -.186E+01 0.435E+00 -.166E+00   -.131E-02 -.337E-03 -.625E-03
   -.436E+01 0.263E+02 0.169E+01   0.419E+01 -.244E+02 -.126E+01   0.166E+00 -.186E+01 -.435E+00   0.625E-03 -.131E-02 0.337E-03
   0.436E+01 0.263E+02 -.169E+01   -.419E+01 -.244E+02 0.126E+01   -.166E+00 -.186E+01 0.435E+00   -.625E-03 -.131E-02 -.337E-03
   -.169E+01 -.436E+01 -.263E+02   0.126E+01 0.419E+01 0.244E+02   0.435E+00 0.166E+00 0.186E+01   -.337E-03 0.625E-03 0.131E-02
   -.169E+01 0.436E+01 0.263E+02   0.126E+01 -.419E+01 -.244E+02   0.435E+00 -.166E+00 -.186E+01   -.337E-03 -.625E-03 -.131E-02
   -.169E+02 -.255E-12 0.103E-05   0.160E+02 -.270E-11 -.346E-11   0.979E+00 0.339E-20 0.136E-19   -.171E-02 -.632E-14 0.126E-11
   0.169E+02 0.608E-12 -.102E-05   -.160E+02 -.186E-11 0.211E-11   -.979E+00 0.678E-20 0.237E-19   0.171E-02 0.141E-12 -.250E-12
   0.118E-11 0.691E-12 -.169E+02   0.349E-11 0.271E-11 0.160E+02   0.266E-19 0.421E-21 0.979E+00   0.346E-12 -.130E-11 -.171E-02
   0.412E-12 0.279E-12 0.169E+02   -.185E-11 0.213E-11 -.160E+02   0.724E-20 -.377E-19 -.979E+00   0.584E-12 0.164E-11 0.171E-02
   -.382E-12 0.169E+02 -.103E-05   0.214E-11 -.160E+02 -.189E-11   -.120E-20 -.979E+00 0.271E-19   -.333E-13 0.171E-02 0.697E-12
   -.734E-12 -.169E+02 0.103E-05   0.274E-11 0.160E+02 0.347E-11   0.120E-20 0.979E+00 0.220E-19   0.295E-12 -.171E-02 0.485E-12
   -.521E-12 -.169E+02 0.102E-05   -.343E-11 0.160E+02 -.270E-11   -.558E-20 0.979E+00 -.271E-19   -.613E-12 -.171E-02 -.342E-12
   0.970E-13 0.479E-12 -.169E+02   -.269E-11 -.345E-11 0.160E+02   -.276E-19 0.123E-19 0.979E+00   -.462E-12 0.299E-12 -.171E-02
   -.424E-12 0.169E+02 -.102E-05   0.185E-11 -.160E+02 -.215E-11   0.124E-19 -.979E+00 -.305E-19   0.412E-12 0.171E-02 0.162E-11
   0.910E-13 -.455E-12 0.169E+02   -.213E-11 0.183E-11 -.160E+02   0.467E-21 -.174E-19 -.979E+00   -.312E-12 0.138E-12 0.171E-02
   0.169E+02 -.111E-11 -.103E-05   -.160E+02 -.216E-11 0.181E-11   -.979E+00 0.678E-20 0.237E-19   0.171E-02 0.164E-11 -.286E-11
   -.169E+02 0.151E-11 0.102E-05   0.160E+02 0.346E-11 0.272E-11   0.979E+00 -.339E-20 -.203E-19   -.171E-02 0.571E-12 0.213E-11
   -.162E-12 -.513E-12 0.599E-12   0.189E-11 0.191E-11 0.190E-11   -.360E-23 -.271E-19 -.136E-18   0.335E-11 0.226E-13 0.980E-12
   0.106E-11 -.467E-14 0.482E-13   -.195E-11 -.193E-11 -.193E-11   -.360E-23 -.271E-19 0.108E-18   -.139E-11 0.123E-12 0.179E-11
   -.474E-12 -.200E-12 0.187E-11   -.972E-11 -.106E-10 -.395E-13   0.217E-18 0.366E-18 -.108E-18   -.243E-12 -.988E-14 -.391E-12
   -.153E-05 0.843E-12 -.281E-11   -.284E-13 -.972E-11 -.106E-10   0.709E-23 0.163E-18 0.244E-18   0.850E-12 -.989E-12 -.175E-12
[...]
   -.463E+02 0.317E+02 -.544E+02   0.536E+02 -.390E+02 0.633E+02   -.728E+01 0.735E+01 -.891E+01   0.451E-02 -.406E-02 0.390E-02
   -.544E+02 -.463E+02 0.317E+02   0.633E+02 0.536E+02 -.390E+02   -.891E+01 -.728E+01 0.735E+01   0.390E-02 0.451E-02 -.406E-02
   0.463E+02 0.317E+02 0.544E+02   -.536E+02 -.390E+02 -.633E+02   0.728E+01 0.735E+01 0.891E+01   -.451E-02 -.406E-02 -.390E-02
   0.463E+02 -.317E+02 -.544E+02   -.536E+02 0.390E+02 0.633E+02   0.728E+01 -.735E+01 -.891E+01   -.451E-02 0.406E-02 0.390E-02
   0.544E+02 0.463E+02 0.317E+02   -.633E+02 -.536E+02 -.390E+02   0.891E+01 0.728E+01 0.735E+01   -.390E-02 -.451E-02 -.406E-02
   -.317E+02 -.544E+02 0.463E+02   0.390E+02 0.633E+02 -.536E+02   -.735E+01 -.891E+01 0.728E+01   0.406E-02 0.390E-02 -.451E-02
   0.317E+02 0.544E+02 0.463E+02   -.390E+02 -.633E+02 -.536E+02   0.735E+01 0.891E+01 0.728E+01   -.406E-02 -.390E-02 -.451E-02
   0.317E+02 -.544E+02 -.463E+02   -.390E+02 0.633E+02 0.536E+02   0.735E+01 -.891E+01 -.728E+01   -.406E-02 0.390E-02 0.451E-02
   -.544E+02 0.317E+02 -.463E+02   0.633E+02 -.390E+02 0.536E+02   -.891E+01 0.735E+01 -.728E+01   0.390E-02 -.406E-02 0.451E-02
   0.544E+02 -.317E+02 -.463E+02   -.633E+02 0.390E+02 0.536E+02   0.891E+01 -.735E+01 -.728E+01   -.390E-02 0.406E-02 0.451E-02
   0.463E+02 0.544E+02 0.317E+02   -.536E+02 -.633E+02 -.390E+02   0.728E+01 0.891E+01 0.735E+01   -.451E-02 -.390E-02 -.406E-02
   -.463E+02 0.544E+02 -.317E+02   0.536E+02 -.633E+02 0.390E+02   -.728E+01 0.891E+01 -.735E+01   0.451E-02 -.390E-02 0.406E-02
   -.317E+02 0.463E+02 -.544E+02   0.390E+02 -.536E+02 0.633E+02   -.735E+01 0.728E+01 -.891E+01   0.406E-02 -.451E-02 0.390E-02
   -.317E+02 -.463E+02 0.544E+02   0.390E+02 0.536E+02 -.633E+02   -.735E+01 -.728E+01 0.891E+01   0.406E-02 0.451E-02 -.390E-02
   0.131E-05 0.131E-05 -.793E-07   0.995E-13 -.171E-12 -.114E-12   -.178E-14 -.266E-14 -.888E-14   0.231E-11 -.317E-11 0.512E-11

 POSITION                                       TOTAL-FORCE (eV/Angst)
      0.00000      4.68710      4.68710        -0.000000     -0.000000      0.000000
      4.68710     -0.00000      0.00000        -0.000000     -0.000000      0.000000
     -0.00000      0.00000      4.68710        -0.000000     -0.000000      0.000000
      0.00000      4.68710      0.00000        -0.000000      0.000000      0.000000
      4.68710     -0.00000      4.68710        -0.000000     -0.000000      0.000000
      4.68710      4.68710      0.00000        -0.000000      0.000000      0.000000
      2.34355     -0.00000      4.68710        -0.000000     -0.000000      0.000000
      0.00000      4.68710      7.03065        -0.000000     -0.000000      0.000000
      0.00000      4.68710      2.34355        -0.000000     -0.000000      0.000000
      4.68710      2.34355      0.00000        -0.000000      0.000000      0.000000
      4.68710      7.03065      0.00000        -0.000000      0.000000      0.000000
      7.03065     -0.00000      4.68710        -0.000000     -0.000000      0.000000
      2.10959      2.10959      2.10959        -0.001636     -0.001636     -0.001636
      2.57751      6.79669      2.57751         0.001636     -0.001636      0.001636
      2.57751      2.57751      6.79669         0.001636      0.001636     -0.001636
      6.79669      2.57751      2.57751        -0.001636      0.001636      0.001636
      7.26461      7.26461      2.10959         0.001636      0.001636     -0.001636
      2.10959      7.26461      7.26461        -0.001636      0.001636      0.001636
      7.26461      2.10959      7.26461         0.001636     -0.001636      0.001636
      6.79669      6.79669      6.79669        -0.001636     -0.001636     -0.001636
      2.37594      2.23114      9.14048         0.000232     -0.001710     -0.002159
      2.31116      4.45338      2.45595        -0.000232     -0.002159      0.001710
      2.31116      4.92082      6.91824        -0.000232      0.002159     -0.001710
      4.92082      2.45595      7.06304         0.002159      0.001710      0.000232
      4.45338      2.45595      2.31116        -0.002159      0.001710     -0.000232
      6.91824      2.31116      4.92082        -0.001710     -0.000232      0.002159
      2.45595      7.06304      4.92082         0.001710      0.000232      0.002159
      9.14048      2.37594      2.23114        -0.002159      0.000232     -0.001710
      2.23114      9.14048      2.37594        -0.001710     -0.002159      0.000232
      7.14305      0.23372      2.37594         0.001710      0.002159      0.000232
      9.14048      6.99825      7.14305        -0.002159     -0.000232      0.001710
      7.14305      9.14048      6.99825         0.001710     -0.002159     -0.000232
      0.23372      6.99825      2.23114         0.002159     -0.000232     -0.001710
      0.23372      2.37594      7.14305         0.002159      0.000232      0.001710
      2.23114      0.23372      6.99825        -0.001710      0.002159     -0.000232
      2.37594      7.14305      0.23372         0.000232      0.001710      0.002159
      6.99825      2.23114      0.23372        -0.000232     -0.001710      0.002159
      6.99825      7.14305      9.14048        -0.000232      0.001710     -0.002159
      2.45595      2.31116      4.45338         0.001710     -0.000232     -0.002159
      6.91824      7.06304      4.45338        -0.001710      0.000232     -0.002159
      4.92082      6.91824      2.31116         0.002159     -0.001710     -0.000232
      4.45338      6.91824      7.06304        -0.002159     -0.001710      0.000232
      7.06304      4.92082      2.45595         0.000232      0.002159      0.001710
      7.06304      4.45338      6.91824         0.000232     -0.002159     -0.001710
      2.47080     -0.00000      0.00000         0.001259     -0.000000      0.000000
      2.21630      4.68710      4.68710        -0.001259      0.000000      0.000000
      4.68710      4.68710      7.15790        -0.000000      0.000000      0.001259
      4.68710      4.68710      2.21630        -0.000000     -0.000000     -0.001259
      4.68710      2.21630      4.68710        -0.000000     -0.001259      0.000000
      4.68710      7.15790      4.68710        -0.000000      0.001259      0.000000
      0.00000      2.47080      0.00000        -0.000000      0.001259      0.000000
     -0.00000      0.00000      2.47080        -0.000000      0.000000      0.001259
      0.00000      6.90340      0.00000        -0.000000     -0.001259      0.000000
     -0.00000      0.00000      6.90340        -0.000000     -0.000000     -0.001259
      6.90340     -0.00000      0.00000        -0.001259      0.000000      0.000000
      7.15790      4.68710      4.68710         0.001259     -0.000000      0.000000
      4.68710      4.68710      4.68710        -0.000000     -0.000000      0.000000
     -0.00000      0.00000      0.00000        -0.000000     -0.000000      0.000000
      4.68710     -0.00000      7.03065        -0.000000     -0.000000      0.000000
      7.03065      4.68710      0.00000        -0.000000     -0.000000      0.000000
[...]
      5.74594      8.44022      3.28992        -0.003071      0.001667     -0.001986
      0.93398      6.08428      5.74594        -0.001667      0.001986     -0.003071
      5.74594      0.93398      6.08428        -0.003071     -0.001667      0.001986
      8.44022      6.08428      3.62826         0.001667      0.001986      0.003071
      8.44022      3.28992      5.74594         0.001667     -0.001986     -0.003071
      3.62826      8.44022      6.08428         0.003071      0.001667      0.001986
      3.28992      5.74594      8.44022        -0.001986     -0.003071      0.001667
      6.08428      3.62826      8.44022         0.001986      0.003071      0.001667
      6.08428      5.74594      0.93398         0.001986     -0.003071     -0.001667
      1.05884      1.39718      5.62108        -0.003071      0.001986     -0.001667
      8.31536      7.97702      5.62108         0.003071     -0.001986     -0.001667
      3.75312      8.31536      1.39718         0.001667      0.003071      0.001986
      5.62108      8.31536      7.97702        -0.001667      0.003071     -0.001986
      7.97702      3.75312      1.05884        -0.001986      0.001667     -0.003071
      7.97702      5.62108      8.31536        -0.001986     -0.001667      0.003071
    total drift:                                0.000001      0.000001     -0.000000

  FREE ENERGIE OF THE ION-ELECTRON SYSTEM (eV)
  free  energy   TOTEN  =      -487.57195620 eV

  energy  without entropy=     -487.57195620  energy(sigma->0) =     -487.57195620

 d Force = 0.9839711E-05[ 0.946E-05, 0.102E-04]  d Energy = 0.2242188E-04-0.126E-04
 d Force =-0.2061304E+00[-0.206E+00,-0.206E+00]  d Ewald  =-0.5950454E-02-0.200E+00

 reached required accuracy - stopping structural energy minimisation

 total charge

[...]

 magnetization (x)

# of ion       s       p       d       tot
    1        0.000  -0.000   0.000   0.000
    2        0.000  -0.000   0.000  -0.000
    3        0.000   0.000   0.000   0.000
    4        0.000  -0.000   0.000   0.000
    5        0.000  -0.000   0.000  -0.000
    6        0.000   0.000   0.000   0.000
    7       -0.000  -0.000   0.000  -0.000
    8       -0.000  -0.000   0.000  -0.000
    9       -0.000  -0.000   0.000  -0.000
   10        0.000  -0.000   0.000  -0.000
   11       -0.000  -0.000   0.000  -0.000
   12       -0.000  -0.000   0.000  -0.000
   13        0.000   0.000   0.000   0.000
   14       -0.000   0.000   0.000   0.000
   15       -0.000   0.000   0.000   0.000
   16       -0.000   0.000   0.000   0.000
   17       -0.000   0.000   0.000   0.000
   18       -0.000   0.000   0.000   0.000
   19       -0.000   0.000   0.000   0.000
   20        0.000   0.000   0.000   0.000
   21        0.000   0.000   0.000   0.000
   22        0.000   0.000   0.000   0.000
   23        0.000   0.000   0.000   0.000
   24       -0.000   0.000   0.000   0.000
   25        0.000   0.000   0.000   0.000
   26        0.000   0.000   0.000   0.000
   27        0.000   0.000   0.000   0.000
   28        0.000   0.000   0.000   0.000
   29        0.000   0.000   0.000   0.000
   30       -0.000   0.000   0.000   0.000
   31        0.000   0.000   0.000   0.000
   32       -0.000   0.000   0.000   0.000
   33        0.000   0.000   0.000   0.000
   34        0.000   0.000   0.000   0.000
   35       -0.000   0.000   0.000   0.000
   36        0.000   0.000   0.000   0.000
   37        0.000   0.000   0.000   0.000
   38        0.000   0.000   0.000   0.000
   39        0.000   0.000   0.000   0.000
   40        0.000   0.000   0.000   0.000
   41       -0.000   0.000   0.000   0.000
   42       -0.000   0.000   0.000   0.000
   43        0.000   0.000   0.000   0.000
   44        0.000   0.000   0.000   0.000
   45       -0.000  -0.000   0.000  -0.000
   46       -0.000  -0.000   0.000  -0.000
   47       -0.000  -0.000   0.000  -0.000
   48       -0.000  -0.000   0.000  -0.000
   49       -0.000  -0.000   0.000  -0.000
   50       -0.000  -0.000   0.000  -0.000
   51        0.000  -0.000   0.000  -0.000
   52       -0.000  -0.000   0.000  -0.000
   53       -0.000  -0.000   0.000  -0.000
   54       -0.000  -0.000   0.000  -0.000
   55       -0.000  -0.000   0.000  -0.000
   56       -0.000  -0.000   0.000  -0.000
   57        0.000   0.000   0.000   0.000
   58        0.000   0.000   0.000   0.000
   59        0.000   0.000   0.000   0.000
   60       -0.000   0.000   0.000  -0.000
[...]
   82       -0.000   0.000   0.000   0.000
   83       -0.000   0.000   0.000   0.000
   84        0.000   0.000   0.000   0.000
   85       -0.000   0.000   0.000   0.000
   86       -0.000   0.000   0.000   0.000
   87        0.000   0.000   0.000   0.000
   88       -0.000   0.000   0.000   0.000
   89       -0.000   0.000   0.000   0.000
   90       -0.000   0.000   0.000   0.000
   91       -0.000   0.000   0.000   0.000
   92       -0.000  -0.000   0.000  -0.000
   93       -0.000   0.000   0.000   0.000
   94       -0.000   0.000   0.000   0.000
   95       -0.000   0.000   0.000   0.000
   96       -0.000   0.000   0.000   0.000
tot          0.000   0.000   0.000   0.000

 BZINTS: Fermi energy:  3.731393;368.000000 electrons
         Band energy:***********;  BLOECHL correction:  0.000000