 vasp.6.1.2 22Jul20 (build Dec 05 2020 14:50:36) complex

 executed on         CrayXC-Intel date 2021.02.03  12:09:18

 INCAR:
 POTCAR:    PAW_PBE Li_sv 10Sep2004
 POTCAR:    PAW_PBE P 06Sep2000
 POTCAR:    PAW_PBE Li_sv 10Sep2004
   VRHFIN =Li: 1s2s2p

   TITEL  = PAW_PBE Li_sv 10Sep2004
   POMASS =    7.010; ZVAL   =    3.000    mass and valenz
   ENMAX  =  499.034; ENMIN  =  374.276 eV

 POTCAR:    PAW_PBE P 06Sep2000
   VRHFIN =P : s2p3

   TITEL  = PAW_PBE P 06Sep2000
   POMASS =   30.974; ZVAL   =    5.000    mass and valenz
   ENMAX  =  255.040; ENMIN  =  191.280 eV

 Optimization of the real space projectors (new method)

 maximal supplied QI-value         = 22.11
 optimisation between [QCUT,QGAM] = [ 11.50, 23.22] = [ 37.02,150.92] Ry
 Optimized for a Real-space Cutoff    1.08 Angstroem

   l    n(q)    QCUT    max X(q) W(low)/X(q) W(high)/X(q)  e(spline)
   0      7    11.497    10.506    0.36E-04    0.62E-04    0.14E-07
   0      7    11.497     8.367    0.65E-04    0.14E-03    0.28E-07
   1      7    11.497     8.983    0.21E-03    0.43E-03    0.90E-07
 Optimization of the real space projectors (new method)

 maximal supplied QI-value         = 19.84
 optimisation between [QCUT,QGAM] = [ 11.51, 23.22] = [ 37.09,150.92] Ry
 Optimized for a Real-space Cutoff    1.21 Angstroem

   l    n(q)    QCUT    max X(q) W(low)/X(q) W(high)/X(q)  e(spline)
   0      8    11.508   160.924    0.96E-04    0.17E-03    0.52E-07
   0      8    11.508   130.086    0.95E-04    0.17E-03    0.51E-07
   1      8    11.508    74.434    0.16E-03    0.74E-04    0.91E-07
   1      8    11.508    49.120    0.16E-03    0.71E-04    0.89E-07
  PAW_PBE Li_sv 10Sep2004               :
  PAW_PBE P 06Sep2000                   :

 POSCAR: Li12 P28
  positions in direct lattice
 exchange correlation table for  LEXCH =        8
   RHO(1)=    0.500       N(1)  =     2000
   RHO(2)=  100.500       N(2)  =     4000

 ion  position               nearest neighbor table
   1  0.851  0.308  0.816-  34 2.64  37 2.65  31 2.71
   2  0.351  0.192  0.184-  33 2.64  38 2.65  32 2.71
   3  0.149  0.808  0.684-  36 2.64  39 2.65  29 2.71
   4  0.649  0.692  0.316-  35 2.64  40 2.65  30 2.71
   5  0.569  0.026  0.015-  40 2.53  34 2.56  29 2.58  20 2.71
   6  0.069  0.474  0.985-  39 2.53  33 2.56  30 2.58  19 2.71
   7  0.431  0.526  0.485-  38 2.53  36 2.56  31 2.58  18 2.71
   8  0.931  0.974  0.515-  37 2.53  35 2.56  32 2.58  17 2.71
   9  0.402  0.301  0.692-  31 2.60  16 2.61  18 2.64  25 2.66
  10  0.902  0.199  0.308-  32 2.60  15 2.61  17 2.64  26 2.66
  11  0.598  0.801  0.808-  29 2.60  14 2.61  20 2.64  27 2.66
  12  0.098  0.699  0.192-  30 2.60  13 2.61  19 2.64  28 2.66
  13  0.281  0.875  0.319-  32 2.18  36 2.19  40 2.19  12 2.61
  14  0.781  0.625  0.681-  31 2.18  35 2.19  39 2.19  11 2.61
  15  0.719  0.375  0.181-  30 2.18  34 2.19  38 2.19  10 2.61
  16  0.219  0.125  0.819-  29 2.18  33 2.19  37 2.19   9 2.61
  17  0.638  0.049  0.387-  40 2.15  25 2.26  21 2.29  10 2.64   8 2.71
  18  0.138  0.451  0.613-  39 2.15  26 2.26  22 2.29   9 2.64   7 2.71
  19  0.362  0.549  0.113-  38 2.15  27 2.26  23 2.29  12 2.64   6 2.71
  20  0.862  0.951  0.887-  37 2.15  28 2.26  24 2.29  11 2.64   5 2.71
  21  0.534  0.944  0.565-  36 2.15  25 2.25  17 2.29
  22  0.034  0.556  0.435-  35 2.15  26 2.25  18 2.29
  23  0.466  0.444  0.935-  34 2.15  27 2.25  19 2.29
  24  0.966  0.056  0.065-  33 2.15  28 2.25  20 2.29
  25  0.406  0.135  0.494-  32 2.16  21 2.25  17 2.26   9 2.66
  26  0.906  0.365  0.506-  31 2.16  22 2.25  18 2.26  10 2.66
  27  0.594  0.635  0.006-  30 2.16  23 2.25  19 2.26  11 2.66
  28  0.094  0.865  0.994-  29 2.16  24 2.25  20 2.26  12 2.66
  29  0.316  0.927  0.881-  28 2.16  16 2.18   5 2.58  11 2.60   3 2.71
  30  0.816  0.573  0.119-  27 2.16  15 2.18   6 2.58  12 2.60   4 2.71
  31  0.684  0.427  0.619-  26 2.16  14 2.18   7 2.58   9 2.60   1 2.71
  32  0.184  0.073  0.381-  25 2.16  13 2.18   8 2.58  10 2.60   2 2.71
  33  0.129  0.218  0.995-  24 2.15  16 2.19   6 2.56   2 2.64
  34  0.629  0.282  0.005-  23 2.15  15 2.19   5 2.56   1 2.64
  35  0.871  0.718  0.505-  22 2.15  14 2.19   8 2.56   4 2.64
  36  0.371  0.782  0.495-  21 2.15  13 2.19   7 2.56   3 2.64
  37  0.966  0.071  0.734-  20 2.15  16 2.19   8 2.53   1 2.65
  38  0.466  0.429  0.266-  19 2.15  15 2.19   7 2.53   2 2.65
  39  0.034  0.571  0.766-  18 2.15  14 2.19   6 2.53   3 2.65
  40  0.534  0.929  0.234-  17 2.15  13 2.19   5 2.53   4 2.65

  LATTYP: Found a simple orthorhombic cell.
 ALAT       =     7.6286820000
 B/A-ratio  =     1.2909012330
 C/A-ratio  =     1.3891324871

  Lattice vectors:

 A1 = (   7.6286820000,   0.0000000000,   0.0000000000)
 A2 = (   0.0000000000,   9.8478750000,   0.0000000000)
 A3 = (   0.0000000000,   0.0000000000,  10.5972500000)

Analysis of symmetry for initial positions (statically):
 Subroutine PRICEL returns:
 Original cell was already a primitive cell.

 Routine SETGRP: Setting up the symmetry group for a
 simple orthorhombic supercell.

 Subroutine GETGRP returns: Found  4 space group operations
 (whereof  1 operations were pure point group operations)
 out of a pool of  8 trial point group operations.

The static configuration has the point symmetry C_1 .
 The point group associated with its full space group is D_2 .

Analysis of symmetry for dynamics (positions and initial velocities):
 Subroutine PRICEL returns:
 Original cell was already a primitive cell.

[...]

The dynamic configuration has the point symmetry C_1 .
 The point group associated with its full space group is D_2 .

Analysis of structural, dynamic, and magnetic symmetry:
 Subroutine PRICEL returns:
 Original cell was already a primitive cell.

 Routine SETGRP: Setting up the symmetry group for a
 simple orthorhombic supercell.

 Subroutine GETGRP returns: Found  4 space group operations
 (whereof  1 operations were pure point group operations)
 out of a pool of  8 trial point group operations.

The magnetic configuration has the point symmetry C_1 .
 The point group associated with its full space group is D_2 .

 Subroutine INISYM returns: Found  4 space group operations
 (whereof  1 operations are pure point group operations),
 and found     1 'primitive' translations

                                     Primitive cell

  volume of cell :     796.1323

  direct lattice vectors                    reciprocal lattice vectors
     7.628682000  0.000000000  0.000000000     0.131084242  0.000000000  0.000000000
     0.000000000  9.847875000  0.000000000     0.000000000  0.101544750  0.000000000
     0.000000000  0.000000000 10.597250000     0.000000000  0.000000000  0.094364104

  length of vectors
     7.628682000  9.847875000 10.597250000     0.131084242  0.101544750  0.094364104

  position of ions in fractional coordinates (direct lattice)
     0.850532000  0.307848000  0.816050000
     0.350532000  0.192152000  0.183950000
     0.149468000  0.807848000  0.683950000
     0.649468000  0.692152000  0.316050000
     0.568949000  0.025950000  0.014795000
     0.068949000  0.474050000  0.985205000
     0.431051000  0.525950000  0.485205000
     0.931051000  0.974050000  0.514795000
     0.402238000  0.301371000  0.692124000
     0.902238000  0.198629000  0.307876000
     0.597762000  0.801371000  0.807876000
     0.097762000  0.698629000  0.192124000
     0.280768000  0.875491000  0.318848000
     0.780768000  0.624509000  0.681152000
     0.719232000  0.375491000  0.181152000
     0.219232000  0.124509000  0.818848000
     0.637646000  0.048522000  0.387402000
     0.137646000  0.451478000  0.612598000
     0.362354000  0.548522000  0.112598000
     0.862354000  0.951478000  0.887402000
     0.533797000  0.943528000  0.565132000
     0.033797000  0.556472000  0.434868000
     0.466203000  0.443528000  0.934868000
     0.966203000  0.056472000  0.065132000
     0.406053000  0.134841000  0.494288000
     0.906053000  0.365159000  0.505712000
     0.593947000  0.634841000  0.005712000
     0.093947000  0.865159000  0.994288000
     0.316265000  0.927027000  0.881290000
     0.816265000  0.572973000  0.118710000
     0.683735000  0.427027000  0.618710000
     0.183735000  0.072973000  0.381290000
     0.128725000  0.218031000  0.994617000
     0.628725000  0.281969000  0.005383000
     0.871275000  0.718031000  0.505383000
     0.371275000  0.781969000  0.494617000
     0.966493000  0.070503000  0.734192000
     0.466493000  0.429497000  0.265808000
     0.033507000  0.570503000  0.765808000
     0.533507000  0.929497000  0.234192000

  ion indices of the primitive-cell ions
   primitive index   ion index
                 1           1
                 2           2
                 3           3
                 4           4
                 5           5
                 6           6
                 7           7
                 8           8
                 9           9
                10          10
                11          11
                12          12
                13          13
                14          14
                15          15
                16          16
                17          17
                18          18
                19          19
                20          20
                21          21
                22          22
                23          23
                24          24
                25          25
                26          26
                27          27
                28          28
                29          29
                30          30
                31          31
                32          32
                33          33
                34          34
                35          35
                36          36
                37          37
                38          38
                39          39
                40          40

 KPOINTS: Fully automatic kpoint scheme

Automatic generation of k-mesh.
 generate k-points for:    4    3    3
Space group operators:
 irot       det(A)        alpha          n_x          n_y          n_z        tau_x        tau_y        tau_z
    1     1.000000     0.000000     1.000000     0.000000     0.000000     0.000000     0.000000     0.000000
    2     1.000000   180.000000     0.000000     0.000000     1.000000    -0.500000     0.000000    -0.500000
    3     1.000000   180.000000     0.000000     1.000000     0.000000     0.000000    -0.500000    -0.500000
    4     1.000000   180.000000     1.000000     0.000000     0.000000    -0.500000    -0.500000     0.000000
 TETIRR: Found    102 inequivalent tetrahedra from      216

 Subroutine IBZKPT returns following result:

 Found     12 irreducible k-points:

 Following reciprocal coordinates:
            Coordinates               Weight
  0.000000  0.000000  0.000000      1.000000
  0.250000  0.000000  0.000000      2.000000
  0.500000  0.000000  0.000000      1.000000
  0.000000  0.333333  0.000000      2.000000
  0.250000  0.333333  0.000000      4.000000
  0.500000  0.333333  0.000000      2.000000
  0.000000  0.000000  0.333333      2.000000
  0.250000  0.000000  0.333333      4.000000
  0.500000  0.000000  0.333333      2.000000
[...]
  the test charge radii are     0.7079  0.9587
  (the norm of the test charge is              1.0000)
       1 -61.1511       2 -61.1511       3 -61.1511       4 -61.1511       5 -61.1774
       6 -61.1774       7 -61.1774       8 -61.1774       9 -61.5405      10 -61.5405
      11 -61.5405      12 -61.5405      13 -85.1243      14 -85.1243      15 -85.1243
      16 -85.1243      17 -85.1318      18 -85.1318      19 -85.1318      20 -85.1318
      21 -85.0875      22 -85.0875      23 -85.0875      24 -85.0875      25 -85.1612
      26 -85.1612      27 -85.1612      28 -85.1612      29 -84.4244      30 -84.4244
      31 -84.4244      32 -84.4244      33 -84.3184      34 -84.3184      35 -84.3184
      36 -84.3184      37 -84.3778      38 -84.3778      39 -84.3778      40 -84.3778

 E-fermi :   5.3724     XC(G=0):  -8.6792     alpha+bet :-10.0529

[...]

 spin component 2

[...]

 k-point    12 :       0.5000    0.3333    0.3333
  band No.  band energies     occupation
      1     -42.4574      1.00000
      2     -42.4574      1.00000
      3     -42.4574      1.00000
      4     -42.4574      1.00000
      5     -42.0923      1.00000
      6     -42.0923      1.00000
      7     -42.0923      1.00000
      8     -42.0923      1.00000
      9     -42.0670      1.00000
     10     -42.0670      1.00000
     11     -42.0670      1.00000
     12     -42.0670      1.00000
     13     -10.7291      1.00000
     14     -10.7291      1.00000
     15     -10.6969      1.00000
     16     -10.6969      1.00000
     17      -8.5495      1.00000
     18      -8.5495      1.00000
     19      -8.4995      1.00000
     20      -8.4995      1.00000
     21      -7.7221      1.00000
     22      -7.7221      1.00000
     23      -7.6676      1.00000
     24      -7.6676      1.00000
     25      -7.5421      1.00000
     26      -7.5421      1.00000
     27      -7.5247      1.00000
     28      -7.5247      1.00000
     29      -4.3170      1.00000
     30      -4.3170      1.00000
     31      -4.2707      1.00000
     32      -4.2707      1.00000
     33      -4.1429      1.00000
     34      -4.1429      1.00000
     35      -4.0803      1.00000
     36      -4.0803      1.00000
     37      -3.9991      1.00000
     38      -3.9991      1.00000
     39      -3.9100      1.00000
     40      -3.9100      1.00000
     41      -1.3436      1.00000
     42      -1.3436      1.00000
     43      -1.2182      1.00000
     44      -1.2182      1.00000
     45      -0.8721      1.00000
     46      -0.8721      1.00000
     47      -0.7908      1.00000
     48      -0.7908      1.00000
     49      -0.6405      1.00000
     50      -0.6405      1.00000
     51      -0.5712      1.00000
     52      -0.5712      1.00000
     53      -0.2270      1.00000
     54      -0.2270      1.00000
     55      -0.1634      1.00000
     56      -0.1634      1.00000
     57       0.6370      1.00000
     58       0.6370      1.00000
     59       0.7253      1.00000
     60       0.7253      1.00000
[...]
     98       6.0718      0.00000
     99       6.2766      0.00000
    100       6.2766      0.00000
    101       6.5048      0.00000
    102       6.5048      0.00000
    103       6.7455      0.00000
    104       6.7455      0.00000
    105       6.8653      0.00000
    106       6.8653      0.00000
    107       6.9645      0.00000
    108       6.9645      0.00000
    109       7.1213      0.00000
    110       7.1213      0.00000
    111       7.3024      0.00000
    112       7.3024      0.00000

[...]

 soft charge-density along one line, spin component           2
         0         1         2         3         4         5         6         7         8         9
 total charge-density along one line

------------------------ aborting loop because EDIFF is reached ----------------------------------------

[...]

  FORCE on cell =-STRESS in cart. coord.  units (eV):
  Direction    XX          YY          ZZ          XY          YZ          ZX
  Alpha Z   144.94670   144.94670   144.94670
  Ewald   -1798.89671 -1762.74690 -1799.04984    -0.00000     0.00000    -0.00000
  Hartree   428.37102   462.94686   436.46260    -0.00000    -0.00000    -0.00000
  E(xc)    -634.54437  -634.60525  -634.48812     0.00000     0.00000     0.00000
  Local   -1313.82607 -1390.80129 -1326.21063     0.00000     0.00000     0.00000
  n-local  1397.84260  1399.28013  1396.71383     0.02479    -0.04344    -0.03852
  augment   -76.37648   -76.96299   -76.64626     0.00000     0.00000     0.00000
  Kinetic  1852.50009  1857.97236  1858.25866     0.27726    -0.03011     0.36533
  Fock        0.00000     0.00000     0.00000     0.00000     0.00000     0.00000
  Total       0.01678     0.02961    -0.01306     0.00000     0.00000     0.00000
  in kB       0.03388     0.05979    -0.02637     0.00000     0.00000     0.00000

 VOLUME and BASIS-vectors are now :
  energy-cutoff  :      520.00
  volume of cell :      793.55
      direct lattice vectors                 reciprocal lattice vectors
     7.622204745  0.000000000  0.000000000     0.131195636  0.000000000  0.000000000
     0.000000000  9.849368164  0.000000000     0.000000000  0.101529355  0.000000000
     0.000000000  0.000000000 10.570237952     0.000000000  0.000000000  0.094605250

  length of vectors
     7.622204745  9.849368164 10.570237952     0.131195636  0.101529355  0.094605250

 FORCES acting on ions
    electron-ion (+dipol)            ewald-force                    non-local-force                 convergence-correction
   0.967E+01 0.228E+01 0.465E+01   -.102E+02 -.289E+01 -.447E+01   0.507E+00 0.612E+00 -.172E+00   0.182E-03 -.526E-04 -.588E-03
   0.967E+01 -.228E+01 -.465E+01   -.102E+02 0.289E+01 0.447E+01   0.507E+00 -.612E+00 0.172E+00   0.182E-03 0.526E-04 0.588E-03
   -.967E+01 0.228E+01 -.465E+01   0.102E+02 -.289E+01 0.447E+01   -.507E+00 0.612E+00 0.172E+00   -.182E-03 -.526E-04 0.588E-03
   -.967E+01 -.228E+01 0.465E+01   0.102E+02 0.289E+01 -.447E+01   -.507E+00 -.612E+00 -.172E+00   -.182E-03 0.526E-04 -.588E-03
   -.343E+01 0.859E+01 0.506E+01   0.253E+01 -.839E+01 -.461E+01   0.901E+00 -.196E+00 -.457E+00   -.170E-03 0.705E-04 0.591E-03
   -.343E+01 -.859E+01 -.506E+01   0.253E+01 0.839E+01 0.461E+01   0.901E+00 0.196E+00 0.457E+00   -.170E-03 -.705E-04 -.591E-03
   0.343E+01 0.859E+01 -.506E+01   -.253E+01 -.839E+01 0.461E+01   -.901E+00 -.196E+00 0.457E+00   0.170E-03 0.705E-04 -.591E-03
   0.343E+01 -.859E+01 0.506E+01   -.253E+01 0.839E+01 -.461E+01   -.901E+00 0.196E+00 -.457E+00   0.170E-03 -.705E-04 0.591E-03
   -.103E+02 0.423E+00 -.302E+01   0.968E+01 -.652E+00 0.257E+01   0.580E+00 0.229E+00 0.443E+00   0.221E-03 -.416E-03 -.872E-03
   -.103E+02 -.423E+00 0.302E+01   0.968E+01 0.652E+00 -.257E+01   0.580E+00 -.229E+00 -.443E+00   0.221E-03 0.416E-03 0.872E-03
   0.103E+02 0.423E+00 0.302E+01   -.968E+01 -.652E+00 -.257E+01   -.580E+00 0.229E+00 -.443E+00   -.221E-03 -.416E-03 0.872E-03
   0.103E+02 -.423E+00 -.302E+01   -.968E+01 0.652E+00 0.257E+01   -.580E+00 -.229E+00 0.443E+00   -.221E-03 0.416E-03 -.872E-03
   0.561E+02 0.374E+02 0.471E+02   -.594E+02 -.406E+02 -.500E+02   0.339E+01 0.318E+01 0.292E+01   -.170E-02 -.993E-03 -.276E-03
   0.561E+02 -.374E+02 -.471E+02   -.594E+02 0.406E+02 0.500E+02   0.339E+01 -.318E+01 -.292E+01   -.170E-02 0.993E-03 0.276E-03
   -.561E+02 0.374E+02 -.471E+02   0.594E+02 -.406E+02 0.500E+02   -.339E+01 0.318E+01 -.292E+01   0.170E-02 -.993E-03 0.276E-03
   -.561E+02 -.374E+02 0.471E+02   0.594E+02 0.406E+02 -.500E+02   -.339E+01 -.318E+01 0.292E+01   0.170E-02 0.993E-03 -.276E-03
   -.764E+02 -.386E+02 0.136E+02   0.807E+02 0.403E+02 -.148E+02   -.422E+01 -.174E+01 0.120E+01   -.304E-03 0.221E-02 0.158E-02
   -.764E+02 0.386E+02 -.136E+02   0.807E+02 -.403E+02 0.148E+02   -.422E+01 0.174E+01 -.120E+01   -.304E-03 -.221E-02 -.158E-02
   0.764E+02 -.386E+02 -.136E+02   -.807E+02 0.403E+02 0.148E+02   0.422E+01 -.174E+01 -.120E+01   0.304E-03 0.221E-02 -.158E-02
   0.764E+02 0.386E+02 0.136E+02   -.807E+02 -.403E+02 -.148E+02   0.422E+01 0.174E+01 0.120E+01   0.304E-03 -.221E-02 0.158E-02
   -.399E+02 0.196E+01 -.856E+02   0.419E+02 -.292E+01 0.900E+02   -.192E+01 0.952E+00 -.448E+01   0.760E-03 0.297E-02 -.468E-03
   -.399E+02 -.196E+01 0.856E+02   0.419E+02 0.292E+01 -.900E+02   -.192E+01 -.952E+00 0.448E+01   0.760E-03 -.297E-02 0.468E-03
   0.399E+02 0.196E+01 0.856E+02   -.419E+02 -.292E+01 -.900E+02   0.192E+01 0.952E+00 0.448E+01   -.760E-03 0.297E-02 0.468E-03
   0.399E+02 -.196E+01 -.856E+02   -.419E+02 0.292E+01 0.900E+02   0.192E+01 -.952E+00 -.448E+01   -.760E-03 -.297E-02 -.468E-03
   0.816E+01 -.819E+02 -.405E+02   -.841E+01 0.865E+02 0.437E+02   0.248E+00 -.463E+01 -.316E+01   0.329E-02 0.152E-02 0.105E-02
   0.816E+01 0.819E+02 0.405E+02   -.841E+01 -.865E+02 -.437E+02   0.248E+00 0.463E+01 0.316E+01   0.329E-02 -.152E-02 -.105E-02
   -.816E+01 -.819E+02 0.405E+02   0.841E+01 0.865E+02 -.437E+02   -.248E+00 -.463E+01 0.316E+01   -.329E-02 0.152E-02 -.105E-02
   -.816E+01 0.819E+02 -.405E+02   0.841E+01 -.865E+02 0.437E+02   -.248E+00 0.463E+01 -.316E+01   -.329E-02 -.152E-02 0.105E-02
   -.671E+02 0.444E+02 0.109E+02   0.702E+02 -.454E+02 -.120E+02   -.310E+01 0.107E+01 0.113E+01   0.199E-02 -.119E-02 -.790E-03
   -.671E+02 -.444E+02 -.109E+02   0.702E+02 0.454E+02 0.120E+02   -.310E+01 -.107E+01 -.113E+01   0.199E-02 0.119E-02 0.790E-03
   0.671E+02 0.444E+02 -.109E+02   -.702E+02 -.454E+02 0.120E+02   0.310E+01 0.107E+01 -.113E+01   -.199E-02 -.119E-02 0.790E-03
   0.671E+02 -.444E+02 0.109E+02   -.702E+02 0.454E+02 -.120E+02   0.310E+01 -.107E+01 0.113E+01   -.199E-02 0.119E-02 -.790E-03
   -.121E+02 -.615E+02 -.351E+02   0.131E+02 0.643E+02 0.369E+02   -.100E+01 -.287E+01 -.178E+01   0.352E-03 0.111E-02 -.163E-03
   -.121E+02 0.615E+02 0.351E+02   0.131E+02 -.643E+02 -.369E+02   -.100E+01 0.287E+01 0.178E+01   0.352E-03 -.111E-02 0.163E-03
   0.121E+02 -.615E+02 0.351E+02   -.131E+02 0.643E+02 -.369E+02   0.100E+01 -.287E+01 0.178E+01   -.352E-03 0.111E-02 0.163E-03
   0.121E+02 0.615E+02 -.351E+02   -.131E+02 -.643E+02 0.369E+02   0.100E+01 0.287E+01 -.178E+01   -.352E-03 -.111E-02 -.163E-03
   0.411E+02 -.194E+02 0.718E+02   -.427E+02 0.208E+02 -.750E+02   0.163E+01 -.136E+01 0.319E+01   -.132E-02 -.251E-03 -.190E-02
   0.411E+02 0.194E+02 -.718E+02   -.427E+02 -.208E+02 0.750E+02   0.163E+01 0.136E+01 -.319E+01   -.132E-02 0.251E-03 0.190E-02
   -.411E+02 -.194E+02 -.718E+02   0.427E+02 0.208E+02 0.750E+02   -.163E+01 -.136E+01 -.319E+01   0.132E-02 -.251E-03 0.190E-02
   -.411E+02 0.194E+02 0.718E+02   0.427E+02 -.208E+02 -.750E+02   -.163E+01 0.136E+01 0.319E+01   0.132E-02 0.251E-03 -.190E-02
   -.739E-06 0.257E-06 0.172E-08   -.497E-13 -.320E-13 -.568E-13   -.888E-15 0.222E-15 0.133E-14   0.131E-11 0.119E-11 -.102E-11

 POSITION                                       TOTAL-FORCE (eV/Angst)
      6.48028      3.02752      8.62756        -0.000908     -0.001708     -0.000467
      2.66918      1.89717      1.94268        -0.000908      0.001708      0.000467
      1.14192      7.95220      7.22780         0.000908     -0.001708      0.000467
      4.95302      6.82185      3.34244         0.000908      0.001708     -0.000467
      4.33473      0.25884      0.15897        -0.000304      0.001573      0.000444
      0.52363      4.66584     10.41127        -0.000304     -0.001573     -0.000444
      3.28748      5.18353      5.12615         0.000304      0.001573     -0.000444
      7.09858      9.59053      5.44409         0.000304     -0.001573      0.000444
      3.06350      2.96587      7.30429        -0.002455     -0.000125     -0.007833
      6.87461      1.95881      3.26595        -0.002455      0.000125      0.007833
      4.55870      7.89056      8.55107         0.002455     -0.000125      0.007833
      0.74760      6.88350      2.01917         0.002455      0.000125     -0.007833
      2.13854      8.61882      3.36589        -0.003735     -0.004303     -0.003494
      5.94964      6.15523      7.20434        -0.003735      0.004303      0.003494
      5.48366      3.69414      1.91923         0.003735     -0.004303      0.003494
      1.67256      1.23055      8.65101         0.003735      0.004303     -0.003494
      4.85942      0.47272      4.09818         0.003045     -0.001618      0.003440
      1.04832      4.45196      6.47205         0.003045      0.001618     -0.003440
      2.76279      5.39741      1.18694        -0.003045     -0.001618     -0.003440
      6.57389      9.37664      9.38330        -0.003045      0.001618      0.003440
      4.06671      9.28471      5.97897         0.000619     -0.003013      0.005759
      0.25561      5.48934      4.59127         0.000619      0.003013     -0.005759
      3.55549      4.36003      9.87639        -0.000619     -0.003013     -0.005759
      7.36660      0.56465      0.69385        -0.000619      0.003013      0.005759
      3.09175      1.31845      5.23079         0.001008     -0.002665      0.005267
      6.90286      3.60623      5.33945         0.001008      0.002665     -0.005267
      4.53045      6.24314      0.05433        -0.001008     -0.002665     -0.005267
      0.71935      8.53092     10.51591        -0.001008      0.002665      0.005267
      2.41411      9.13584      9.31422         0.005456      0.001697     -0.002095
      6.22521      5.63821      1.25602         0.005456     -0.001697      0.002095
      5.20810      4.21116      6.54113        -0.005456      0.001697      0.002095
      1.39700      0.71353      4.02910        -0.005456     -0.001697     -0.002095
      0.98362      2.15423     10.51300         0.002560      0.006492     -0.000143
      4.79472      2.77046      0.05724         0.002560     -0.006492      0.000143
      6.63859      7.07891      5.34235        -0.002560      0.006492      0.000143
      2.82748      7.69514      5.22788        -0.002560     -0.006492     -0.000143
      7.36497      0.69914      7.75737        -0.004199      0.001739     -0.005395
      3.55387      4.22554      2.81287        -0.004199     -0.001739      0.005395
      0.25723      5.62382      8.09799         0.004199      0.001739      0.005395
      4.06834      9.15023      2.47225         0.004199     -0.001739     -0.005395
    total drift:                               -0.000001      0.000000      0.000000

  FREE ENERGIE OF THE ION-ELECTRON SYSTEM (eV)
  free  energy   TOTEN  =      -188.97531332 eV

  energy  without entropy=     -188.97531332  energy(sigma->0) =     -188.97531332

 d Force = 0.4589620E-04[ 0.243E-05, 0.894E-04]  d Energy = 0.5790265E-04-0.120E-04
 d Force =-0.2623592E+00[-0.263E+00,-0.262E+00]  d Ewald  = 0.1407876E+00-0.403E+00

 reached required accuracy - stopping structural energy minimisation

 total charge

[...]

 magnetization (x)

# of ion       s       p       d       tot
    1       -0.000   0.000   0.000  -0.000
    2       -0.000   0.000   0.000  -0.000
    3       -0.000   0.000   0.000  -0.000
    4       -0.000   0.000   0.000  -0.000
    5       -0.000   0.000   0.000   0.000
    6       -0.000   0.000   0.000   0.000
    7       -0.000   0.000   0.000   0.000
    8       -0.000   0.000   0.000   0.000
    9       -0.000   0.000   0.000   0.000
   10       -0.000   0.000   0.000   0.000
   11       -0.000   0.000   0.000   0.000
   12       -0.000   0.000   0.000   0.000
   13       -0.000   0.000   0.000   0.000
   14       -0.000   0.000   0.000   0.000
   15       -0.000   0.000   0.000   0.000
   16       -0.000   0.000   0.000   0.000
   17       -0.000   0.000   0.000   0.000
   18       -0.000   0.000   0.000   0.000
   19       -0.000   0.000   0.000   0.000
   20       -0.000   0.000   0.000   0.000
   21       -0.000  -0.000   0.000  -0.000
   22       -0.000  -0.000   0.000  -0.000
   23       -0.000  -0.000   0.000  -0.000
   24       -0.000  -0.000   0.000  -0.000
   25       -0.000   0.000   0.000   0.000
   26       -0.000   0.000   0.000   0.000
   27       -0.000   0.000   0.000   0.000
   28       -0.000   0.000   0.000   0.000
   29        0.000   0.000   0.000   0.000
   30        0.000   0.000   0.000   0.000
   31        0.000   0.000   0.000   0.000
   32        0.000   0.000   0.000   0.000
   33       -0.000   0.000   0.000   0.000
   34       -0.000   0.000   0.000   0.000
   35       -0.000   0.000   0.000   0.000
   36       -0.000   0.000   0.000   0.000
   37       -0.000   0.000   0.000   0.000
   38       -0.000   0.000   0.000   0.000
   39       -0.000   0.000   0.000   0.000
   40       -0.000   0.000   0.000   0.000
tot         -0.000   0.000   0.000   0.000

 BZINTS: Fermi energy:    5.372417;  176.000000 electrons
         Band energy:-0.129302E+04;  BLOECHL correction:    0.000000