 vasp.5.4.4.18Apr17-6-g9f103f2a35 (build Aug 12 2020 11:57:02) complex

 executed on             LinuxIFC date 2021.02.03  06:48:25

 INCAR:
 POTCAR:    PAW_PBE Li_sv 10Sep2004
 POTCAR:    PAW_PBE O 08Apr2002
 POTCAR:    PAW_PBE Li_sv 10Sep2004
   VRHFIN =Li: 1s2s2p

   TITEL  = PAW_PBE Li_sv 10Sep2004
   POMASS =    7.010; ZVAL   =    3.000    mass and valenz
   ENMAX  =  499.034; ENMIN  =  374.276 eV

 POTCAR:    PAW_PBE O 08Apr2002
   VRHFIN =O: s2p4

   TITEL  = PAW_PBE O 08Apr2002
   POMASS =   16.000; ZVAL   =    6.000    mass and valenz
   ENMAX  =  400.000; ENMIN  =  300.000 eV

 Optimization of the real space projectors (new method)

 maximal supplied QI-value         = 22.11
 optimisation between [QCUT,QGAM] = [ 11.50, 23.22] = [ 37.02,150.92] Ry
 Optimized for a Real-space Cutoff    1.08 Angstroem

   l    n(q)    QCUT    max X(q) W(low)/X(q) W(high)/X(q)  e(spline)
   0      7    11.497    10.506    0.36E-04    0.62E-04    0.14E-07
   0      7    11.497     8.367    0.65E-04    0.14E-03    0.28E-07
   1      7    11.497     8.983    0.21E-03    0.43E-03    0.90E-07
 Optimization of the real space projectors (new method)

 maximal supplied QI-value         = 24.76
 optimisation between [QCUT,QGAM] = [ 11.64, 23.27] = [ 37.91,151.63] Ry
 Optimized for a Real-space Cutoff    1.14 Angstroem

   l    n(q)    QCUT    max X(q) W(low)/X(q) W(high)/X(q)  e(spline)
   0      8    11.635    20.381    0.10E-03    0.33E-03    0.24E-06
   0      8    11.635    15.268    0.11E-03    0.35E-03    0.26E-06
   1      7    11.635     5.964    0.24E-03    0.31E-03    0.30E-06
   1      7    11.635     5.382    0.22E-03    0.25E-03    0.26E-06
  PAW_PBE Li_sv 10Sep2004               :
  PAW_PBE O 08Apr2002                   :

 POSCAR: Li4 O4
  positions in direct lattice
 exchange correlation table for  LEXCH =        8
   RHO(1)=    0.500       N(1)  =     2000
   RHO(2)=  100.500       N(2)  =     4000

 ion  position               nearest neighbor table
   1  0.000  0.000  0.000-   6 2.17   8 2.17   6 2.17   8 2.17   6 2.17   8 2.17
   2  0.000  0.000  0.500-   5 2.17   7 2.17   7 2.17   5 2.17   7 2.17   5 2.17
   3  0.333  0.667  0.250-   6 1.99   7 1.99   6 1.99   7 1.99   6 1.99   7 1.99
   4  0.667  0.333  0.750-   5 1.99   8 1.99   5 1.99   8 1.99   5 1.99   8 1.99
   5  0.333  0.667  0.649-   8 1.55   4 1.99   4 1.99   4 1.99   2 2.17   2 2.17   2 2.17
   6  0.667  0.333  0.149-   7 1.55   3 1.99   3 1.99   3 1.99   1 2.17   1 2.17   1 2.17
   7  0.667  0.333  0.351-   6 1.55   3 1.99   3 1.99   3 1.99   2 2.17   2 2.17   2 2.17
   8  0.333  0.667  0.851-   5 1.55   4 1.99   4 1.99   4 1.99   1 2.17   1 2.17   1 2.17

  LATTYP: Found a hexagonal cell.
 ALAT       =     3.1803620000
 C/A-ratio  =     2.4222154585

  Lattice vectors:

 A1 = (   1.5901810000,  -2.7542740000,   0.0000000000)
 A2 = (   1.5901810000,   2.7542740000,   0.0000000000)
 A3 = (   0.0000000000,   0.0000000000,   7.7035220000)

Analysis of symmetry for initial positions (statically):
 Subroutine PRICEL returns:
 Original cell was already a primitive cell.

 Routine SETGRP: Setting up the symmetry group for a
 hexagonal supercell.

 Subroutine GETGRP returns: Found 24 space group operations
 (whereof 12 operations were pure point group operations)
 out of a pool of 24 trial point group operations.

The static configuration has the point symmetry D_3d.
 The point group associated with its full space group is D_6h.

Analysis of symmetry for dynamics (positions and initial velocities):
 Subroutine PRICEL returns:
 Original cell was already a primitive cell.

[...]

The dynamic configuration has the point symmetry D_3d.
 The point group associated with its full space group is D_6h.

Analysis of structural, dynamic, and magnetic symmetry:
 Subroutine PRICEL returns:
 Original cell was already a primitive cell.

 Routine SETGRP: Setting up the symmetry group for a
 hexagonal supercell.

 Subroutine GETGRP returns: Found 24 space group operations
 (whereof 12 operations were pure point group operations)
 out of a pool of 24 trial point group operations.

The magnetic configuration has the point symmetry D_3d.
 The point group associated with its full space group is D_6h.

 Subroutine INISYM returns: Found 24 space group operations
 (whereof 12 operations are pure point group operations),
 and found     1 'primitive' translations

 KPOINTS: Fully automatic kpoint scheme

Automatic generation of k-mesh.
 generate k-points for:   12   12    4
Space group operators:
 irot       det(A)        alpha          n_x          n_y          n_z        tau_x        tau_y        tau_z
    1     1.000000     0.000000     1.000000     0.000000     0.000000     0.000000     0.000000     0.000000
    2    -1.000000     0.000000     1.000000     0.000000     0.000000     0.000000     0.000000     0.000000
    3     1.000000   120.000000     0.000000     0.000000    -1.000000     0.000000     0.000000     0.000000
    4    -1.000000   120.000000     0.000000     0.000000    -1.000000     0.000000     0.000000     0.000000
    5     1.000000   120.000000     0.000000     0.000000     1.000000     0.000000     0.000000     0.000000
    6    -1.000000   120.000000     0.000000     0.000000     1.000000     0.000000     0.000000     0.000000
    7     1.000000   180.000000     0.500000    -0.866025     0.000000     0.000000     0.000000     0.000000
    8    -1.000000   180.000000     0.500000    -0.866025     0.000000     0.000000     0.000000     0.000000
    9     1.000000   180.000000    -0.500000    -0.866025     0.000000     0.000000     0.000000     0.000000
   10    -1.000000   180.000000    -0.500000    -0.866025     0.000000     0.000000     0.000000     0.000000
   11     1.000000   180.000000     1.000000     0.000000     0.000000     0.000000     0.000000     0.000000
   12    -1.000000   180.000000     1.000000     0.000000     0.000000     0.000000     0.000000     0.000000
   13     1.000000    60.000000     0.000000     0.000000    -1.000000     0.000001     0.000000     0.500000
   14    -1.000000    60.000000     0.000000     0.000000    -1.000000     0.000001     0.000000     0.500000
   15     1.000000   180.000000     0.000000     0.000000     1.000000     0.000000     0.000000     0.500000
   16    -1.000000   180.000000     0.000000     0.000000     1.000000     0.000000     0.000000     0.500000
   17     1.000000    60.000000     0.000000     0.000000     1.000000     0.000000     0.000000     0.500000
   18    -1.000000    60.000000     0.000000     0.000000     1.000000     0.000000     0.000000     0.500000
   19     1.000000   180.000000     0.000000     1.000000     0.000000     0.000000     0.000000     0.500000
   20    -1.000000   180.000000     0.000000     1.000000     0.000000     0.000000     0.000000     0.500000
   21     1.000000   180.000000     0.866025     0.500000     0.000000     0.000001     0.000000     0.500000
   22    -1.000000   180.000000     0.866025     0.500000     0.000000     0.000001     0.000000     0.500000
   23     1.000000   180.000000     0.866025    -0.500000     0.000000     0.000000     0.000000     0.500000
   24    -1.000000   180.000000     0.866025    -0.500000     0.000000     0.000000     0.000000     0.500000

 Subroutine IBZKPT returns following result:

 Found     57 irreducible k-points:

 Following reciprocal coordinates:
            Coordinates               Weight
  0.000000  0.000000  0.000000      1.000000
  0.083333  0.000000  0.000000      6.000000
  0.166667  0.000000  0.000000      6.000000
  0.250000 -0.000000  0.000000      6.000000
  0.333333  0.000000  0.000000      6.000000
  0.416667  0.000000  0.000000      6.000000
  0.500000 -0.000000  0.000000      3.000000
  0.083333  0.083333  0.000000      6.000000
  0.166667  0.083333  0.000000     12.000000
  0.250000  0.083333  0.000000     12.000000
  0.333333  0.083333  0.000000     12.000000
  0.416667  0.083333  0.000000     12.000000
  0.166667  0.166667  0.000000      6.000000
  0.250000  0.166667  0.000000     12.000000
  0.333333  0.166667  0.000000     12.000000
  0.416667  0.166667  0.000000      6.000000
  0.250000  0.250000  0.000000      6.000000
  0.333333  0.250000  0.000000     12.000000
  0.333333  0.333333  0.000000      2.000000
  0.000000  0.000000  0.250000      2.000000
  0.083333  0.000000  0.250000     12.000000
  0.166667  0.000000  0.250000     12.000000
  0.250000 -0.000000  0.250000     12.000000
  0.333333  0.000000  0.250000     12.000000
  0.416667  0.000000  0.250000     12.000000
  0.500000 -0.000000  0.250000      6.000000
  0.083333  0.083333  0.250000     12.000000
  0.166667  0.083333  0.250000     24.000000
  0.250000  0.083333  0.250000     24.000000
  0.333333  0.083333  0.250000     24.000000
  0.416667  0.083333  0.250000     24.000000
  0.166667  0.166667  0.250000     12.000000
  0.250000  0.166667  0.250000     24.000000
  0.333333  0.166667  0.250000     24.000000
  0.416667  0.166667  0.250000     12.000000
  0.250000  0.250000  0.250000     12.000000
  0.333333  0.250000  0.250000     24.000000
  0.333333  0.333333  0.250000      4.000000
  0.000000  0.000000  0.500000      1.000000
  0.083333  0.000000  0.500000      6.000000
  0.166667  0.000000  0.500000      6.000000
  0.250000 -0.000000  0.500000      6.000000
  0.333333  0.000000  0.500000      6.000000
  0.416667  0.000000  0.500000      6.000000
  0.500000 -0.000000  0.500000      3.000000
  0.083333  0.083333  0.500000      6.000000
  0.166667  0.083333  0.500000     12.000000
  0.250000  0.083333  0.500000     12.000000
  0.333333  0.083333  0.500000     12.000000
  0.416667  0.083333  0.500000     12.000000
  0.166667  0.166667  0.500000      6.000000
  0.250000  0.166667  0.500000     12.000000
  0.333333  0.166667  0.500000     12.000000
  0.416667  0.166667  0.500000      6.000000
  0.250000  0.250000  0.500000      6.000000
  0.333333  0.250000  0.500000     12.000000
  0.333333  0.333333  0.500000      2.000000

 Following cartesian coordinates:
            Coordinates               Weight
  0.000000  0.000000  0.000000      1.000000
  0.026202 -0.015128  0.000000      6.000000
  0.052405 -0.030256  0.000000      6.000000
  0.078607 -0.045384  0.000000      6.000000
  0.104810 -0.060512  0.000000      6.000000
  0.131012 -0.075640  0.000000      6.000000
  0.157215 -0.090768  0.000000      3.000000
  0.052405  0.000000  0.000000      6.000000
  0.078607 -0.015128  0.000000     12.000000
  0.104810 -0.030256  0.000000     12.000000
  0.131012 -0.045384  0.000000     12.000000
  0.157215 -0.060512  0.000000     12.000000
  0.104810  0.000000  0.000000      6.000000
  0.131012 -0.015128  0.000000     12.000000
  0.157215 -0.030256  0.000000     12.000000
  0.183417 -0.045384  0.000000      6.000000
  0.157215  0.000000  0.000000      6.000000
  0.183417 -0.015128  0.000000     12.000000
  0.209620  0.000000  0.000000      2.000000
  0.000000  0.000000  0.032453      2.000000
  0.026202 -0.015128  0.032453     12.000000
  0.052405 -0.030256  0.032453     12.000000
  0.078607 -0.045384  0.032453     12.000000
  0.104810 -0.060512  0.032453     12.000000
  0.131012 -0.075640  0.032453     12.000000
[...]

 BZINTS: Fermi energy: 16.722745; 36.000000 electrons
         Band energy:-201.810669;  BLOECHL correction: -0.193665

 eigenvalue-minimisations  :  5472
 total energy-change (2. order) : 0.2664610E+03  (-0.1820383E+04)
 number of electron      36.0000000 magnetization       0.0000000
 augmentation part       36.0000000 magnetization       0.0000000

 Free energy of the ion-electron system (eV)
  alpha Z        PSCENC =        65.79552193
  Ewald energy   TEWEN  =     -1642.00330232
  -Hartree energ DENC   =      -588.39760021
  -exchange      EXHF   =         0.00000000
  -V(xc)+E(xc)   XCENC  =       161.17012265
  PAW double counting   =      1705.24440522    -1774.06085075
  entropy T*S    EENTRO =         0.00000000
  eigenvalues    EBANDS =      -201.81066856
  atomic energy  EATOM  =      2540.52333388
  Solvation  Ediel_sol  =         0.00000000
  free energy    TOTEN  =       266.46096183 eV

  energy without entropy =      266.46096183  energy(sigma->0) =      266.46096183

[...]

 eigenvalue-minimisations  :  6640
 total energy-change (2. order) :-0.2828163E+03  (-0.2759984E+03)
 number of electron      36.0000000 magnetization       0.0000000
 augmentation part       36.0000000 magnetization       0.0000000

[...]

 Broyden mixing:
  rms(total) = 0.11371E+01    rms(broyden)= 0.11304E+01
  rms(prec ) = 0.15052E+01
  weight for this iteration     100.00

[...]

 eigenvalues of (default mixing * dielectric matrix)
  average eigenvalue GAMMA=   1.3742
  1.3742

[...]

 average (electrostatic) potential at core
  the test charge radii are     0.7079  0.7215
  (the norm of the test charge is              1.0000)
       1 -60.9049       2 -60.9049       3 -60.4715       4 -60.4715       5 -72.8399
       6 -72.8400       7 -72.8400       8 -72.8399

 E-fermi :   2.4144     XC(G=0):  -9.9717     alpha+bet :-13.3056

 spin component 1

 k-point     1 :       0.0000    0.0000    0.0000
  band No.  band energies     occupation
      1     -41.8355      1.00000
      2     -41.8298      1.00000
      3     -41.4107      1.00000
      4     -41.4058      1.00000
      5     -18.1743      1.00000
      6     -17.9899      1.00000
      7     -13.1866      1.00000
      8     -12.4781      1.00000
      9      -4.0606      1.00000
     10      -2.3061      1.00000
     11      -1.0310      1.00000
     12      -1.0310      1.00000
     13      -0.8713      1.00000
     14      -0.8713      1.00000
     15       2.0766      1.00000
     16       2.0766      1.00000
     17       2.3216      1.00000
     18       2.3216      1.00000
     19       4.3625      0.00000
     20       6.5893      0.00000
     21       8.3562      0.00000
     22       8.7231      0.00000
     23      10.9320      0.00000
     24      11.0415      0.00000

[...]

 soft charge-density along one line, spin component           1
         0         1         2         3         4         5         6         7         8         9
 total charge-density along one line

[...]

------------------------ aborting loop because EDIFF is reached ----------------------------------------

 total charge

# of ion       s       p       d       tot
    1        2.015   0.048   0.000   2.064
    2        2.015   0.048   0.000   2.063
    3        2.024   0.070   0.000   2.095
    4        2.024   0.070   0.000   2.095
    5        1.572   3.358   0.000   4.930
    6        1.573   3.358   0.000   4.930
    7        1.572   3.358   0.000   4.930
    8        1.573   3.358   0.000   4.930
tot         14.369  13.668   0.000  28.037

 magnetization (x)

[...]

  FORCE on cell =-STRESS in cart. coord.  units (eV):
  Direction    XX          YY          ZZ          XY          YZ          ZX
  Alpha Z    65.79552    65.79552    65.79552
  Ewald    -623.43676  -623.43869  -395.13026    -0.00000     0.00000    -0.00000
  Hartree   181.08159   181.08123   262.07494     0.00000    -0.00000    -0.00000
  E(xc)    -174.96730  -174.96726  -174.53371    -0.00000     0.00000    -0.00000
  Local    -100.33364  -100.33197  -330.54982     0.00000     0.00000     0.00000
  n-local  -161.55768  -167.88382  -144.14200    -2.89611    -0.00833     0.11604
  augment   100.41364   100.41403    90.10131    -0.00000    -0.00000     0.00000
  Kinetic   702.25542   728.81098   626.04758    13.16232     0.07729    -0.51732
  Fock        0.00000     0.00000     0.00000     0.00000     0.00000     0.00000
  Total      -0.63459    -0.63459    -0.33644     0.00000    -0.00000    -0.00000
  in kB     -15.06719   -15.06719    -7.98817     0.00000    -0.00000    -0.00000

 VOLUME and BASIS-vectors are now :
  energy-cutoff  :      520.00
  volume of cell :       67.48
      direct lattice vectors                 reciprocal lattice vectors
     1.590181000 -2.754274000  0.000000000     0.314429615 -0.181536042  0.000000000
     1.590181000  2.754274000  0.000000000     0.314429615  0.181536042  0.000000000
     0.000000000  0.000000000  7.703522000     0.000000000  0.000000000  0.129810754

[...]

 FORCES acting on ions
    electron-ion (+dipol)            ewald-force                    non-local-force                 convergence-correction
   0.724E-12 0.358E-04 0.111E-03   -.284E-14 -.285E-15 0.142E-13   0.000E+00 0.000E+00 0.000E+00   -.163E-15 -.375E-07 0.349E-09
   0.757E-11 0.579E-03 -.110E-03   0.747E-15 0.516E-16 0.711E-14   0.000E+00 0.000E+00 0.000E+00   0.461E-15 -.336E-07 0.831E-09
   0.421E-11 -.585E-03 -.330E-06   -.206E-13 -.397E-03 -.142E-13   0.867E-18 0.954E-17 0.424E-20   -.185E-13 -.862E-06 0.419E-09
   0.424E-11 0.639E-03 -.331E-06   0.101E-13 0.397E-03 0.142E-13   -.304E-17 -.781E-17 0.110E-19   0.294E-13 0.789E-06 0.419E-09
   0.390E-06 -.153E-02 0.130E+03   0.103E-14 -.280E-03 -.152E+03   0.607E-17 0.867E-17 0.226E+02   -.546E-15 -.444E-06 0.233E-02
   0.390E-06 0.297E-02 0.130E+03   0.151E-13 0.280E-03 -.152E+03   0.000E+00 -.694E-17 0.226E+02   0.405E-13 0.483E-06 0.233E-02
   -.390E-06 0.298E-02 -.130E+03   0.830E-14 0.280E-03 0.152E+03   0.347E-17 -.867E-17 -.226E+02   0.469E-14 0.443E-06 -.233E-02
   -.390E-06 -.155E-02 -.130E+03   -.228E-14 -.280E-03 0.152E+03   0.104E-16 0.104E-16 -.226E+02   -.358E-13 -.404E-06 -.233E-02
   0.741E-10 0.353E-02 0.546E-05   0.964E-14 -.365E-14 0.000E+00   0.178E-16 0.520E-17 -.711E-14   0.201E-13 -.647E-07 0.431E-08

 POSITION                                       TOTAL-FORCE (eV/Angst)
      0.00000      0.00000      0.00000        -0.000000      0.000000      0.000000
      0.00000      0.00000      3.85176        -0.000000      0.000000      0.000000
      1.59018      0.91809      1.92588         0.000000      0.000000      0.000000
      1.59018     -0.91809      5.77764         0.000000      0.000000      0.000000
      1.59018      0.91809      5.00197         0.000000      0.000000      0.009139
      1.59018     -0.91809      1.15021        -0.000000     -0.000000      0.009139
      1.59018     -0.91809      2.70155         0.000000     -0.000000     -0.009139
      1.59018      0.91809      6.55331        -0.000000      0.000000     -0.009139
    total drift:                                0.000000      0.003534      0.000005

  FREE ENERGIE OF THE ION-ELECTRON SYSTEM (eV)
  free  energy   TOTEN  =       -38.92839975 eV

  energy  without entropy=      -38.92839975  energy(sigma->0) =      -38.92839975

[...]

WARNING in EDDRMM: call to ZHEGV failed, returncode =   6  3      2
 BZINTS: Fermi energy:  2.541939; 36.000000 electrons
         Band energy:-470.325635;  BLOECHL correction:  0.000000

[...]

 d Force =-0.3492597E-04[-0.859E-04, 0.161E-04]  d Energy = 0.3710032E-02-0.374E-02
 d Force =-0.2688903E+00[-0.270E+00,-0.268E+00]  d Ewald  = 0.5322351E+01-0.559E+01

 Steepest descent step on ions:
 trial-energy change:   -0.003710  1 .order   -0.003568   -0.005556   -0.001580
  (g-gl).g = 0.556E-02      g.g   = 0.556E-02  gl.gl    = 0.000E+00
 g(Force)  = 0.161E-04   g(Stress)= 0.554E-02 ortho     = 0.000E+00
 gamma     =   0.00000
 trial     =   1.00000
 opt step  =   1.31024  (harmonic =   1.39746) maximal distance =0.00057768
 next E    =   -38.932359   (d E  =  -0.00396)

[...]

 d Force =-0.3214604E-04[-0.376E-04,-0.267E-04]  d Energy = 0.3919904E-03-0.424E-03
 d Force =-0.8389538E-01[-0.840E-01,-0.838E-01]  d Ewald  = 0.1658284E+01-0.174E+01

[...]

 d Force =-0.7791782E-04[-0.111E-02, 0.952E-03]  d Energy = 0.7567466E-04-0.154E-03
 d Force = 0.2108617E+01[ 0.209E+01, 0.213E+01]  d Ewald  = 0.3533567E+01-0.142E+01

 Conjugate gradient step on ions:
 trial-energy change:   -0.000076  1 .order   -0.000079   -0.001450    0.001292
  (g-gl).g = 0.735E-03      g.g   = 0.129E-02  gl.gl    = 0.556E-02
 g(Force)  = 0.912E-03   g(Stress)= 0.380E-03 ortho     = 0.557E-03
 gamma     =   0.13232
 trial     =   1.06205
 opt step  =   0.56159  (harmonic =   0.56159) maximal distance =0.00182992
 next E    =   -38.932885   (d E  =  -0.00038)

 real space projection operators:
  max/ min on nodes  :        200.94        197.88

[...]

 eigenvalue-minimisations  :  5504
 total energy-change (2. order) :-0.7074094E-03  (-0.7189436E-02)
 number of electron      35.9999995 magnetization       0.0000000
 augmentation part        6.2448132 magnetization       0.0000019

[...]

 Broyden mixing:
  rms(total) = 0.27030E-02    rms(broyden)= 0.26994E-02
  rms(prec ) = 0.31903E-02
  weight for this iteration     100.00

 eigenvalues of (default mixing * dielectric matrix)
  average eigenvalue GAMMA=   1.6703
  1.3863  1.9542

[...]

--------------------------------------- Iteration      5(   4)  ---------------------------------------

[...]

 eigenvalue-minimisations  :  3683
 total energy-change (2. order) : 0.4269742E-05  (-0.2490860E-05)
 number of electron      35.9999995 magnetization       0.0000000
 augmentation part        6.2410048 magnetization      -0.0000008

 Free energy of the ion-electron system (eV)
  alpha Z        PSCENC =        66.70781003
  Ewald energy   TEWEN  =     -1650.85765871
  -Hartree energ DENC   =      -619.09361759
  -exchange      EXHF   =         0.00000000
  -V(xc)+E(xc)   XCENC  =       163.90313862
  PAW double counting   =      2092.94903986    -2163.56443741
  entropy T*S    EENTRO =         0.00000000
  eigenvalues    EBANDS =      -469.50050299
  atomic energy  EATOM  =      2540.52333388
  Solvation  Ediel_sol  =         0.00000000
  free energy    TOTEN  =       -38.93289432 eV

  energy without entropy =      -38.93289432  energy(sigma->0) =      -38.93289432

 average (electrostatic) potential at core
  the test charge radii are     0.7079  0.7215
  (the norm of the test charge is              1.0000)
       1 -60.7773       2 -60.7773       3 -60.3516       4 -60.3516       5 -72.7697
       6 -72.7697       7 -72.7697       8 -72.7697

 E-fermi :   2.4435     XC(G=0): -10.0375     alpha+bet :-13.4901

[...]

 spin component 2

[...]

 k-point    57 :       0.3333    0.3333    0.5000
  band No.  band energies     occupation
      1     -41.6905      1.00000
      2     -41.6905      1.00000
      3     -41.2714      1.00000
      4     -41.2714      1.00000
      5     -17.8739      1.00000
      6     -17.8739      1.00000
      7     -12.3893      1.00000
      8     -12.3892      1.00000
      9      -3.0975      1.00000
     10      -3.0975      1.00000
     11      -2.7148      1.00000
     12      -2.7148      1.00000
     13      -1.9450      1.00000
     14      -1.9450      1.00000
     15       0.9137      1.00000
     16       0.9137      1.00000
     17       1.1662      1.00000
     18       1.1662      1.00000
     19       5.6705      0.00000
     20       5.6705      0.00000
     21      12.4109      0.00000
     22      12.4109      0.00000
     23      13.0841      0.00000
     24      13.0841      0.00000

[...]

 soft charge-density along one line, spin component           2
         0         1         2         3         4         5         6         7         8         9
 total charge-density along one line

------------------------ aborting loop because EDIFF is reached ----------------------------------------

[...]

  FORCE on cell =-STRESS in cart. coord.  units (eV):
  Direction    XX          YY          ZZ          XY          YZ          ZX
  Alpha Z    66.70781    66.70781    66.70781
  Ewald    -625.66832  -625.67026  -399.52150     0.00000     0.00000     0.00000
  Hartree   179.92436   179.92401   259.30385     0.00000    -0.00000    -0.00000
  E(xc)    -175.08573  -175.08569  -174.65705     0.00000     0.00000    -0.00000
  Local     -97.74563   -97.74395  -324.24383    -0.00000     0.00000     0.00000
  n-local  -162.42108  -168.84267  -144.99424    -2.94076    -0.00804     0.11794
  augment   100.19693   100.19738    89.87531     0.00000     0.00000    -0.00000
  Kinetic   703.84309   730.67040   627.47116    13.32398     0.07796    -0.52572
  Fock        0.00000     0.00000     0.00000     0.00000     0.00000     0.00000
  Total      -0.04577    -0.04577    -0.05848     0.00000     0.00000     0.00000
  in kB      -1.10167    -1.10167    -1.40780     0.00000     0.00000     0.00000

 VOLUME and BASIS-vectors are now :
  energy-cutoff  :      520.00
  volume of cell :       66.56
      direct lattice vectors                 reciprocal lattice vectors
     1.581046688 -2.738452912 -0.000000000     0.316246196 -0.182584845 -0.000000000
     1.581046688  2.738452912  0.000000000     0.316246196  0.182584845  0.000000000
    -0.000000000 -0.000000000  7.686218220     0.000000000 -0.000000000  0.130102994

  length of vectors
     3.162093133  3.162093133  7.686218220     0.365169662  0.365169662  0.130102994

 FORCES acting on ions
    electron-ion (+dipol)            ewald-force                    non-local-force                 convergence-correction
   0.700E-12 0.344E-04 0.112E-03   -.127E-14 -.685E-15 0.284E-13   -.847E-21 0.847E-21 0.000E+00   0.193E-13 -.540E-08 0.875E-08
   0.757E-11 0.580E-03 -.110E-03   -.926E-15 -.461E-15 0.711E-14   -.847E-21 -.423E-21 0.000E+00   0.122E-13 -.163E-07 -.811E-08
   0.404E-11 -.582E-03 -.323E-06   0.102E-13 -.400E-03 -.213E-13   -.434E-18 0.694E-17 -.508E-20   0.483E-13 -.576E-06 0.287E-09
   0.442E-11 0.639E-03 -.323E-06   -.149E-13 0.400E-03 0.142E-13   0.173E-17 -.867E-17 0.508E-20   -.313E-14 0.619E-06 0.287E-09
   0.471E-06 -.152E-02 0.129E+03   0.155E-13 -.281E-03 -.152E+03   -.434E-17 0.518E-17 0.226E+02   -.564E-13 -.831E-07 -.349E-02
   0.471E-06 0.294E-02 0.129E+03   0.862E-16 0.281E-03 -.152E+03   -.955E-17 -.350E-17 0.226E+02   0.340E-14 0.410E-08 -.349E-02
   -.471E-06 0.296E-02 -.129E+03   -.107E-13 0.281E-03 0.152E+03   0.261E-17 0.176E-17 -.226E+02   0.701E-14 0.224E-08 0.349E-02
   -.471E-06 -.154E-02 -.129E+03   0.410E-14 -.281E-03 0.152E+03   0.347E-17 0.697E-17 -.226E+02   -.242E-13 -.812E-07 0.349E-02
   0.746E-10 0.352E-02 0.572E-05   0.208E-14 0.212E-14 0.000E+00   -.651E-17 0.867E-17 -.355E-14   0.647E-14 -.137E-06 -.897E-10

 POSITION                                       TOTAL-FORCE (eV/Angst)
     -0.00000      0.00000      0.00000         0.000000     -0.000000      0.000000
     -0.00000     -0.00000      3.84311         0.000000     -0.000000      0.000000
      1.58105      0.91282      1.92155         0.000000     -0.000000      0.000000
      1.58105     -0.91282      5.76466        -0.000000     -0.000000      0.000000
      1.58105      0.91282      4.98948         0.000000      0.000000      0.011468
      1.58105     -0.91282      1.14637        -0.000000     -0.000000      0.011468
      1.58105     -0.91282      2.69674        -0.000000     -0.000000     -0.011468
      1.58105      0.91282      6.53984         0.000000      0.000000     -0.011468
    total drift:                                0.000000      0.003519      0.000006

  FREE ENERGIE OF THE ION-ELECTRON SYSTEM (eV)
  free  energy   TOTEN  =       -38.93289432 eV

  energy  without entropy=      -38.93289432  energy(sigma->0) =      -38.93289432

 d Force = 0.2982147E-03[ 0.748E-04, 0.522E-03]  d Energy = 0.3168676E-03-0.187E-04
 d Force =-0.9877194E+00[-0.992E+00,-0.984E+00]  d Ewald  =-0.1659846E+01 0.672E+00

 reached required accuracy - stopping structural energy minimisation

 total charge

[...]

 magnetization (x)

# of ion       s       p       d       tot
    1       -0.000  -0.000   0.000  -0.000
    2        0.000  -0.000   0.000  -0.000
    3        0.000  -0.000   0.000  -0.000
    4        0.000  -0.000   0.000  -0.000
    5       -0.000  -0.000   0.000  -0.000
    6       -0.000  -0.000   0.000  -0.000
    7       -0.000  -0.000   0.000  -0.000
    8       -0.000  -0.000   0.000  -0.000
tot          0.000  -0.000   0.000  -0.000

 BZINTS: Fermi energy:  2.443512; 36.000000 electrons
         Band energy:-469.500503;  BLOECHL correction:  0.000000