 vasp.5.4.4.18Apr17-6-g9f103f2a35 (build Aug 12 2020 11:57:02) complex

 executed on             LinuxIFC date 2021.01.31  04:38:06

 INCAR:
 POTCAR:    PAW_PBE Li_sv 10Sep2004
 POTCAR:    PAW_PBE O 08Apr2002

 POTCAR:    PAW_PBE Li_sv 10Sep2004
   VRHFIN =Li: 1s2s2p

   TITEL  = PAW_PBE Li_sv 10Sep2004
   POMASS =    7.010; ZVAL   =    3.000    mass and valenz
   ENMAX  =  499.034; ENMIN  =  374.276 eV

 POTCAR:    PAW_PBE O 08Apr2002
   VRHFIN =O: s2p4

   TITEL  = PAW_PBE O 08Apr2002
   POMASS =   16.000; ZVAL   =    6.000    mass and valenz
   ENMAX  =  400.000; ENMIN  =  300.000 eV

 Optimization of the real space projectors (new method)

 maximal supplied QI-value         = 22.11
 optimisation between [QCUT,QGAM] = [ 11.50, 23.22] = [ 37.02,150.92] Ry
 Optimized for a Real-space Cutoff    1.08 Angstroem

   l    n(q)    QCUT    max X(q) W(low)/X(q) W(high)/X(q)  e(spline)
   0      7    11.497    10.506    0.36E-04    0.62E-04    0.14E-07
   0      7    11.497     8.367    0.65E-04    0.14E-03    0.28E-07
   1      7    11.497     8.983    0.21E-03    0.43E-03    0.90E-07
 Optimization of the real space projectors (new method)

 maximal supplied QI-value         = 24.76
 optimisation between [QCUT,QGAM] = [ 11.64, 23.27] = [ 37.91,151.63] Ry
 Optimized for a Real-space Cutoff    1.14 Angstroem

   l    n(q)    QCUT    max X(q) W(low)/X(q) W(high)/X(q)  e(spline)
   0      8    11.635    20.381    0.10E-03    0.33E-03    0.24E-06
   0      8    11.635    15.268    0.11E-03    0.35E-03    0.26E-06
   1      7    11.635     5.964    0.24E-03    0.31E-03    0.30E-06
   1      7    11.635     5.382    0.22E-03    0.25E-03    0.26E-06
  PAW_PBE Li_sv 10Sep2004               :
  PAW_PBE O 08Apr2002                   :

 POSCAR: Li2 O1
  positions in direct lattice
 exchange correlation table for  LEXCH =        8
   RHO(1)=    0.500       N(1)  =     2000
   RHO(2)=  100.500       N(2)  =     4000

 ion  position               nearest neighbor table
   1  0.750  0.750  0.750-   3 2.02   3 2.02   3 2.02   3 2.02   2 2.33   2 2.33   2 2.33   2 2.33
                             2 2.33   2 2.33
   2  0.250  0.250  0.250-   3 2.02   3 2.02   3 2.02   3 2.02   1 2.33   1 2.33   1 2.33   1 2.33
                             1 2.33   1 2.33
   3  0.000  0.000  0.000-   1 2.02   1 2.02   1 2.02   1 2.02   2 2.02   2 2.02   2 2.02   2 2.02

  LATTYP: Found a face centered cubic cell.
 ALAT       =     4.6588420000

  Lattice vectors:

 A1 = (   0.0000000000,   2.3294210000,   2.3294210000)
 A2 = (   2.3294210000,   0.0000000000,   2.3294210000)
 A3 = (   2.3294210000,   2.3294210000,   0.0000000000)

Analysis of symmetry for initial positions (statically):
 Subroutine PRICEL returns:
 Original cell was already a primitive cell.

 Routine SETGRP: Setting up the symmetry group for a
 face centered cubic supercell.

 Subroutine GETGRP returns: Found 48 space group operations
 (whereof 48 operations were pure point group operations)
 out of a pool of 48 trial point group operations.

The static configuration has the point symmetry O_h .

Analysis of symmetry for dynamics (positions and initial velocities):
 Subroutine PRICEL returns:
 Original cell was already a primitive cell.

[...]

The dynamic configuration has the point symmetry O_h .

Analysis of structural, dynamic, and magnetic symmetry:
 Subroutine PRICEL returns:
 Original cell was already a primitive cell.

 Routine SETGRP: Setting up the symmetry group for a
 face centered cubic supercell.

 Subroutine GETGRP returns: Found 48 space group operations
 (whereof 48 operations were pure point group operations)
 out of a pool of 48 trial point group operations.

The magnetic configuration has the point symmetry O_h .

 Subroutine INISYM returns: Found 48 space group operations
 (whereof 48 operations are pure point group operations),
 and found     1 'primitive' translations

 KPOINTS: Fully automatic kpoint scheme

Automatic generation of k-mesh.
 generate k-points for:   12   12   12
Space group operators:
 irot       det(A)        alpha          n_x          n_y          n_z        tau_x        tau_y        tau_z
    1     1.000000     0.000000     1.000000     0.000000     0.000000     0.000000     0.000000     0.000000
    2    -1.000000     0.000000     1.000000     0.000000     0.000000     0.000000     0.000000     0.000000
    3     1.000000   120.000000    -0.577350    -0.577350    -0.577350     0.000000     0.000000     0.000000
    4    -1.000000   120.000000    -0.577350    -0.577350    -0.577350     0.000000     0.000000     0.000000
    5     1.000000   120.000000     0.577350     0.577350     0.577350     0.000000     0.000000     0.000000
    6    -1.000000   120.000000     0.577350     0.577350     0.577350     0.000000     0.000000     0.000000
    7     1.000000    90.000000     0.000000     0.000000    -1.000000     0.000000     0.000000     0.000000
    8    -1.000000    90.000000     0.000000     0.000000    -1.000000     0.000000     0.000000     0.000000
    9     1.000000   180.000000     0.000000     0.707107     0.707107     0.000000     0.000000     0.000000
   10    -1.000000   180.000000     0.000000     0.707107     0.707107     0.000000     0.000000     0.000000
   11     1.000000    90.000000     0.000000     1.000000     0.000000     0.000000     0.000000     0.000000
   12    -1.000000    90.000000     0.000000     1.000000     0.000000     0.000000     0.000000     0.000000
   13     1.000000   180.000000     0.000000     0.000000     1.000000     0.000000     0.000000     0.000000
   14    -1.000000   180.000000     0.000000     0.000000     1.000000     0.000000     0.000000     0.000000
   15     1.000000   120.000000    -0.577350     0.577350     0.577350     0.000000     0.000000     0.000000
   16    -1.000000   120.000000    -0.577350     0.577350     0.577350     0.000000     0.000000     0.000000
   17     1.000000   120.000000    -0.577350     0.577350    -0.577350     0.000000     0.000000     0.000000
   18    -1.000000   120.000000    -0.577350     0.577350    -0.577350     0.000000     0.000000     0.000000
   19     1.000000    90.000000     0.000000     0.000000     1.000000     0.000000     0.000000     0.000000
   20    -1.000000    90.000000     0.000000     0.000000     1.000000     0.000000     0.000000     0.000000
   21     1.000000    90.000000    -1.000000     0.000000     0.000000     0.000000     0.000000     0.000000
   22    -1.000000    90.000000    -1.000000     0.000000     0.000000     0.000000     0.000000     0.000000
   23     1.000000   180.000000     0.707107     0.000000     0.707107     0.000000     0.000000     0.000000
   24    -1.000000   180.000000     0.707107     0.000000     0.707107     0.000000     0.000000     0.000000
   25     1.000000   120.000000     0.577350    -0.577350     0.577350     0.000000     0.000000     0.000000
   26    -1.000000   120.000000     0.577350    -0.577350     0.577350     0.000000     0.000000     0.000000
   27     1.000000   120.000000    -0.577350    -0.577350     0.577350     0.000000     0.000000     0.000000
   28    -1.000000   120.000000    -0.577350    -0.577350     0.577350     0.000000     0.000000     0.000000
   29     1.000000   180.000000     1.000000     0.000000     0.000000     0.000000     0.000000     0.000000
   30    -1.000000   180.000000     1.000000     0.000000     0.000000     0.000000     0.000000     0.000000
   31     1.000000    90.000000     0.000000    -1.000000     0.000000     0.000000     0.000000     0.000000
   32    -1.000000    90.000000     0.000000    -1.000000     0.000000     0.000000     0.000000     0.000000
   33     1.000000   180.000000     0.707107     0.707107     0.000000     0.000000     0.000000     0.000000
   34    -1.000000   180.000000     0.707107     0.707107     0.000000     0.000000     0.000000     0.000000
   35     1.000000    90.000000     1.000000     0.000000     0.000000     0.000000     0.000000     0.000000
   36    -1.000000    90.000000     1.000000     0.000000     0.000000     0.000000     0.000000     0.000000
   37     1.000000   120.000000     0.577350    -0.577350    -0.577350     0.000000     0.000000     0.000000
   38    -1.000000   120.000000     0.577350    -0.577350    -0.577350     0.000000     0.000000     0.000000
   39     1.000000   180.000000     0.000000     1.000000     0.000000     0.000000     0.000000     0.000000
   40    -1.000000   180.000000     0.000000     1.000000     0.000000     0.000000     0.000000     0.000000
   41     1.000000   120.000000     0.577350     0.577350    -0.577350     0.000000     0.000000     0.000000
   42    -1.000000   120.000000     0.577350     0.577350    -0.577350     0.000000     0.000000     0.000000
   43     1.000000   180.000000     0.000000    -0.707107     0.707107     0.000000     0.000000     0.000000
   44    -1.000000   180.000000     0.000000    -0.707107     0.707107     0.000000     0.000000     0.000000
   45     1.000000   180.000000     0.707107    -0.707107     0.000000     0.000000     0.000000     0.000000
   46    -1.000000   180.000000     0.707107    -0.707107     0.000000     0.000000     0.000000     0.000000
   47     1.000000   180.000000     0.707107     0.000000    -0.707107     0.000000     0.000000     0.000000
   48    -1.000000   180.000000     0.707107     0.000000    -0.707107     0.000000     0.000000     0.000000

 Subroutine IBZKPT returns following result:

 Found     72 irreducible k-points:

 Following reciprocal coordinates:
            Coordinates               Weight
  0.000000  0.000000  0.000000      1.000000
  0.083333  0.000000  0.000000      8.000000
  0.166667  0.000000  0.000000      8.000000
  0.250000  0.000000  0.000000      8.000000
  0.333333  0.000000  0.000000      8.000000
  0.416667  0.000000  0.000000      8.000000
  0.500000  0.000000  0.000000      4.000000
  0.083333  0.083333  0.000000      6.000000
  0.166667  0.083333  0.000000     24.000000
  0.250000  0.083333  0.000000     24.000000
  0.333333  0.083333  0.000000     24.000000
  0.416667  0.083333  0.000000     24.000000
  0.500000  0.083333  0.000000     24.000000
 -0.416667  0.083333  0.000000     24.000000
 -0.333333  0.083333  0.000000     24.000000
 -0.250000  0.083333  0.000000     24.000000
 -0.166667  0.083333  0.000000     24.000000
 -0.083333  0.083333  0.000000     12.000000
  0.166667  0.166667  0.000000      6.000000
  0.250000  0.166667  0.000000     24.000000
  0.333333  0.166667  0.000000     24.000000
  0.416667  0.166667  0.000000     24.000000
  0.500000  0.166667  0.000000     24.000000
 -0.416667  0.166667  0.000000     24.000000
 -0.333333  0.166667  0.000000     24.000000
 -0.250000  0.166667  0.000000     24.000000
 -0.166667  0.166667  0.000000     12.000000
  0.250000  0.250000  0.000000      6.000000
  0.333333  0.250000  0.000000     24.000000
  0.416667  0.250000  0.000000     24.000000
  0.500000  0.250000  0.000000     24.000000
 -0.416667  0.250000  0.000000     24.000000
 -0.333333  0.250000  0.000000     24.000000
 -0.250000  0.250000  0.000000     12.000000
  0.333333  0.333333  0.000000      6.000000
  0.416667  0.333333  0.000000     24.000000
[...]
 k-point 27 :  -0.1667 0.1667 0.0000  plane waves:     674
 k-point 28 :   0.2500 0.2500 0.0000  plane waves:     681
 k-point 29 :   0.3333 0.2500 0.0000  plane waves:     680
 k-point 30 :   0.4167 0.2500 0.0000  plane waves:     682
 k-point 31 :   0.5000 0.2500 0.0000  plane waves:     684
 k-point 32 :  -0.4167 0.2500 0.0000  plane waves:     685
 k-point 33 :  -0.3333 0.2500 0.0000  plane waves:     684
 k-point 34 :  -0.2500 0.2500 0.0000  plane waves:     676
 k-point 35 :   0.3333 0.3333 0.0000  plane waves:     680
 k-point 36 :   0.4167 0.3333 0.0000  plane waves:     683
 k-point 37 :   0.5000 0.3333 0.0000  plane waves:     686
 k-point 38 :  -0.4167 0.3333 0.0000  plane waves:     687
 k-point 39 :  -0.3333 0.3333 0.0000  plane waves:     680
 k-point 40 :   0.4167 0.4167 0.0000  plane waves:     676
 k-point 41 :   0.5000 0.4167 0.0000  plane waves:     685
 k-point 42 :  -0.4167 0.4167 0.0000  plane waves:     684
 k-point 43 :   0.5000 0.5000 0.0000  plane waves:     692
 k-point 44 :   0.2500 0.1667 0.0833  plane waves:     678
 k-point 45 :   0.3333 0.1667 0.0833  plane waves:     673
 k-point 46 :   0.4167 0.1667 0.0833  plane waves:     674
 k-point 47 :   0.5000 0.1667 0.0833  plane waves:     680
 k-point 48 :  -0.4167 0.1667 0.0833  plane waves:     682
 k-point 49 :   0.3333 0.2500 0.0833  plane waves:     678
 k-point 50 :   0.4167 0.2500 0.0833  plane waves:     680
 k-point 51 :   0.5000 0.2500 0.0833  plane waves:     679
 k-point 52 :  -0.4167 0.2500 0.0833  plane waves:     683
 k-point 53 :  -0.3333 0.2500 0.0833  plane waves:     681
 k-point 54 :  -0.2500 0.2500 0.0833  plane waves:     683
 k-point 55 :  -0.1667 0.2500 0.0833  plane waves:     683
 k-point 56 :   0.4167 0.3333 0.0833  plane waves:     673
 k-point 57 :   0.5000 0.3333 0.0833  plane waves:     678
 k-point 58 :  -0.4167 0.3333 0.0833  plane waves:     686
 k-point 59 :  -0.3333 0.3333 0.0833  plane waves:     687
 k-point 60 :  -0.2500 0.3333 0.0833  plane waves:     685
 k-point 61 :   0.5000 0.4167 0.0833  plane waves:     677
 k-point 62 :  -0.4167 0.4167 0.0833  plane waves:     685
 k-point 63 :  -0.3333 0.4167 0.0833  plane waves:     684
 k-point 64 :  -0.4167 0.5000 0.0833  plane waves:     690
 k-point 65 :   0.5000 0.3333 0.1667  plane waves:     676
 k-point 66 :  -0.4167 0.3333 0.1667  plane waves:     680
 k-point 67 :  -0.3333 0.3333 0.1667  plane waves:     692
 k-point 68 :  -0.4167 0.4167 0.1667  plane waves:     686
 k-point 69 :  -0.3333 0.4167 0.1667  plane waves:     689
 k-point 70 :  -0.2500 0.4167 0.1667  plane waves:     690
 k-point 71 :  -0.3333 0.5000 0.1667  plane waves:     690
 k-point 72 :  -0.2500 0.5000 0.2500  plane waves:     684

 maximum and minimum number of plane-waves per node :       701      670

 maximum number of plane-waves:       701
 maximum index in each direction:
   IXMAX=    6   IYMAX=    6   IZMAX=    6
   IXMIN=   -6   IYMIN=   -6   IZMIN=   -6

 serial   3D FFT for wavefunctions
 parallel 3D FFT for charge:
    minimum data exchange during FFTs selected (reduces bandwidth)

 Broyden mixing: mesh for mixing (old mesh)
   NGX = 13   NGY = 13   NGZ = 13
  (NGX  = 56   NGY  = 56   NGZ  = 56)
  gives a total of   2197 points

 initial charge density was supplied:
 charge density of overlapping atoms calculated
 number of electron      12.0000000 magnetization       0.0000000
 keeping initial charge density in first step

 Maximum index for non-local projection operator         5281
 Maximum index for augmentation-charges          937 (set IRDMAX)

 First call to EWALD:  gamma=   0.604
 Maximum number of real-space cells 3x 3x 3
 Maximum number of reciprocal cells 3x 3x 3

--------------------------------------- Iteration      1(   1)  ---------------------------------------

 BZINTS: Fermi energy:  4.024298; 12.000000 electrons
         Band energy:-194.109867;  BLOECHL correction:  0.000000

 eigenvalue-minimisations  :  6936
 total energy-change (2. order) : 0.2776678E+01  (-0.6946936E+03)
 number of electron      12.0000000 magnetization       0.0000000
 augmentation part       12.0000000 magnetization       0.0000000

 Free energy of the ion-electron system (eV)
  alpha Z        PSCENC =        18.27813350
  Ewald energy   TEWEN  =      -502.16616577
  -Hartree energ DENC   =      -177.47872663
  -exchange      EXHF   =         0.00000000
  -V(xc)+E(xc)   XCENC  =        52.95917533
  PAW double counting   =       506.07272715     -538.68227925
  entropy T*S    EENTRO =         0.00000000
  eigenvalues    EBANDS =      -194.10986703
  atomic energy  EATOM  =       837.90368042
  Solvation  Ediel_sol  =         0.00000000
  free energy    TOTEN  =         2.77667771 eV

  energy without entropy =        2.77667771  energy(sigma->0) =        2.77667771

[...]

 eigenvalue-minimisations  : 10992
 total energy-change (2. order) :-0.1885263E+02  (-0.1885263E+02)
 number of electron      12.0000000 magnetization       0.0000000
 augmentation part       12.0000000 magnetization       0.0000000

[...]

 Broyden mixing:
  rms(total) = 0.74737E+00    rms(broyden)= 0.74720E+00
  rms(prec ) = 0.28139E+01
  weight for this iteration     100.00

[...]

 eigenvalues of (default mixing * dielectric matrix)
  average eigenvalue GAMMA=   0.7578
  0.7578

[...]

 average (electrostatic) potential at core
  the test charge radii are     0.7079  0.7215
  (the norm of the test charge is              1.0000)
       1 -60.7552       2 -60.7552       3 -71.1601

 E-fermi :   1.3688     XC(G=0):  -9.6475     alpha+bet :-14.7962

 spin component 1

 k-point     1 :       0.0000    0.0000    0.0000
  band No.  band energies     occupation
      1     -41.8327      1.00000
      2     -41.5286      1.00000
      3     -14.2022      1.00000
      4       1.2050      1.00000
      5       1.2050      1.00000
      6       1.2050      1.00000
      7       6.2979      0.00000
      8      12.9941      0.00000
      9      12.9941      0.00000
     10      12.9942      0.00000
     11      19.9340      0.00000
     12      19.9340      0.00000
     13      19.9341      0.00000
     14      22.2676      0.00000
     15      22.2676      0.00000
     16      28.3320      0.00000
     17      28.5027      0.00000
     18      28.5027      0.00000
     19      28.5027      0.00000
     20      32.1813      0.00000
     21      46.8996      0.00000
     22      46.8996      0.00000
     23      46.8997      0.00000
     24      49.0700      0.00000

[...]

 soft charge-density along one line, spin component           1
         0         1         2         3         4         5         6         7         8         9
 total charge-density along one line

[...]

------------------------ aborting loop because EDIFF is reached ----------------------------------------

 total charge

# of ion       s       p       d       tot
    1        2.033   0.079   0.000   2.112
    2        2.033   0.079   0.000   2.112
    3        1.534   3.489   0.000   5.024
tot          5.601   3.647   0.000   9.248

 magnetization (x)

[...]

  FORCE on cell =-STRESS in cart. coord.  units (eV):
  Direction    XX          YY          ZZ          XY          YZ          ZX
  Alpha Z    18.27813    18.27813    18.27813
  Ewald    -167.38883  -167.38883  -167.38883     0.00000     0.00000    -0.00000
  Hartree    64.95970    64.95970    64.95970     0.00000     0.00000     0.00000
  E(xc)     -58.04922   -58.04922   -58.04922    -0.00000    -0.00000    -0.00000
  Local     -56.47884   -56.47884   -56.47884    -0.00006    -0.00006    -0.00006
  n-local   -62.90568   -63.16340   -61.32958    -1.26382     1.16124    -0.72832
  augment    40.83468    40.83468    40.83468     0.00005     0.00005     0.00005
  Kinetic   222.06738   221.94752   216.15089     4.60818    -3.87194     2.55450
  Fock        0.00000     0.00000     0.00000     0.00000     0.00000     0.00000
  Total      -0.25533    -0.25533    -0.25533     0.00000     0.00000     0.00000
  in kB     -16.18209   -16.18209   -16.18209     0.00000     0.00000     0.00000

 VOLUME and BASIS-vectors are now :
  energy-cutoff  :      520.00
  volume of cell :       25.28
      direct lattice vectors                 reciprocal lattice vectors
     0.000000000  2.329421000  2.329421000    -0.214645614  0.214645614  0.214645614
     2.329421000  0.000000000  2.329421000     0.214645614 -0.214645614  0.214645614
     2.329421000  2.329421000  0.000000000     0.214645614  0.214645614 -0.214645614

[...]

 FORCES acting on ions
    electron-ion (+dipol)            ewald-force                    non-local-force                 convergence-correction
   0.257E-08 0.257E-08 0.444E-07   0.107E-14 -.178E-14 -.262E-14   0.607E-17 0.260E-17 -.271E-17   0.942E-06 0.942E-06 0.942E-06
   -.257E-08 -.257E-08 -.444E-07   -.594E-15 0.141E-14 0.311E-14   -.434E-17 -.347E-17 -.694E-17   -.942E-06 -.942E-06 -.942E-06
   -.992E-14 -.851E-14 -.319E-14   -.372E-15 0.595E-15 -.349E-15   0.000E+00 0.414E-24 0.000E+00   -.794E-14 0.276E-14 -.151E-14
   0.282E-12 0.152E-12 0.607E-12   0.104E-15 0.223E-15 0.140E-15   0.173E-17 -.867E-18 -.965E-17   -.446E-14 0.955E-14 -.153E-14

 POSITION                                       TOTAL-FORCE (eV/Angst)
      3.49413      3.49413      3.49413        -0.000000      0.000000     -0.000000
      1.16471      1.16471      1.16471        -0.000000     -0.000000      0.000000
      0.00000      0.00000      0.00000         0.000000     -0.000000      0.000000
    total drift:                                0.000000      0.000000      0.000000

  FREE ENERGIE OF THE ION-ELECTRON SYSTEM (eV)
  free  energy   TOTEN  =       -14.34519081 eV

  energy  without entropy=      -14.34519081  energy(sigma->0) =      -14.34519081

[...]

 d Force = 0.0000000E+00[ 0.000E+00, 0.000E+00]  d Energy = 0.2280929E-02-0.228E-02
 d Force = 0.0000000E+00[ 0.000E+00, 0.000E+00]  d Ewald  = 0.2070342E+01-0.207E+01

 Steepest descent step on ions:
 trial-energy change:   -0.002281  1 .order   -0.002234   -0.003145   -0.001323
  (g-gl).g = 0.315E-02      g.g   = 0.315E-02  gl.gl    = 0.000E+00
 g(Force)  = 0.533E-46   g(Stress)= 0.315E-02 ortho     = 0.000E+00
 gamma     =   0.00000
 trial     =   1.00000
 opt step  =   1.72638  (harmonic =   1.72638) maximal distance =0.00000000
 next E    =   -14.347906   (d E  =  -0.00271)

[...]

 eigenvalue-minimisations  :  6960
 total energy-change (2. order) :-0.6150650E-02  (-0.1193120E-01)
 number of electron      11.9999999 magnetization       0.0000000
 augmentation part        2.4625678 magnetization      -0.0000002

[...]

 Broyden mixing:
  rms(total) = 0.98104E-02    rms(broyden)= 0.98103E-02
  rms(prec ) = 0.17643E-01
  weight for this iteration     100.00

 eigenvalues of (default mixing * dielectric matrix)
  average eigenvalue GAMMA=   1.5707
  0.8650  2.2765

[...]

--------------------------------------- Iteration      3(   4)  ---------------------------------------

[...]

 eigenvalue-minimisations  :  5391
 total energy-change (2. order) : 0.8111277E-04  (-0.7102321E-05)
 number of electron      11.9999999 magnetization       0.0000000
 augmentation part        2.4758528 magnetization       0.0000001

 Free energy of the ion-electron system (eV)
  alpha Z        PSCENC =        18.67239410
  Ewald energy   TEWEN  =      -505.75109851
  -Hartree energ DENC   =      -193.13260525
  -exchange      EXHF   =         0.00000000
  -V(xc)+E(xc)   XCENC  =        54.13650418
  PAW double counting   =       639.31194507     -672.29138117
  entropy T*S    EENTRO =         0.00000000
  eigenvalues    EBANDS =      -193.19746046
  atomic energy  EATOM  =       837.90368042
  Solvation  Ediel_sol  =         0.00000000
  free energy    TOTEN  =       -14.34802163 eV

  energy without entropy =      -14.34802163  energy(sigma->0) =      -14.34802163

 average (electrostatic) potential at core
  the test charge radii are     0.7079  0.7215
  (the norm of the test charge is              1.0000)
       1 -60.5919       2 -60.5919       3 -71.0310

 E-fermi :   1.4537     XC(G=0):  -9.7346     alpha+bet :-15.1153

[...]

 spin component 2

[...]

 k-point    72 :      -0.2500    0.5000    0.2500
  band No.  band energies     occupation
      1     -41.5041      1.00000
      2     -41.5041      1.00000
      3     -13.8372      1.00000
      4      -0.4900      1.00000
      5      -0.1582      1.00000
      6      -0.1582      1.00000
      7       8.4714      0.00000
      8      11.7101      0.00000
      9      15.3834      0.00000
     10      15.3835      0.00000
     11      19.4342      0.00000
     12      19.4342      0.00000
     13      24.3532      0.00000
     14      25.6178      0.00000
     15      26.0387      0.00000
     16      27.0284      0.00000
     17      32.8819      0.00000
     18      35.6915      0.00000
     19      35.6915      0.00000
     20      37.8284      0.00000
     21      37.8284      0.00000
     22      39.6663      0.00000
     23      40.4643      0.00000
     24      42.1093      0.00000

[...]

 soft charge-density along one line, spin component           2
         0         1         2         3         4         5         6         7         8         9
 total charge-density along one line

------------------------ aborting loop because EDIFF is reached ----------------------------------------

[...]

  FORCE on cell =-STRESS in cart. coord.  units (eV):
  Direction    XX          YY          ZZ          XY          YZ          ZX
  Alpha Z    18.67239    18.67239    18.67239
  Ewald    -168.58381  -168.58381  -168.58381    -0.00000    -0.00000    -0.00000
  Hartree    64.35921    64.35921    64.35921     0.00000     0.00000     0.00000
  E(xc)     -58.13335   -58.13335   -58.13335    -0.00000    -0.00000    -0.00000
  Local     -55.04587   -55.04587   -55.04587    -0.00006    -0.00006    -0.00006
  n-local   -63.58309   -63.85531   -61.96739    -1.28802     1.18192    -0.74080
  augment    40.66296    40.66296    40.66296     0.00008     0.00008     0.00008
  Kinetic   223.23032   223.11863   217.20291     4.68231    -3.92436     2.58927
  Fock        0.00000     0.00000     0.00000     0.00000     0.00000     0.00000
  Total      -0.01977    -0.01977    -0.01977    -0.00000    -0.00000    -0.00000
  in kB      -1.28024    -1.28024    -1.28024    -0.00000    -0.00000    -0.00000

 VOLUME and BASIS-vectors are now :
  energy-cutoff  :      520.00
  volume of cell :       24.75
      direct lattice vectors                 reciprocal lattice vectors
    -0.000000000  2.312909286  2.312909286    -0.216177955  0.216177955  0.216177955
     2.312909286  0.000000000  2.312909286     0.216177955 -0.216177955  0.216177955
     2.312909286  2.312909286  0.000000000     0.216177955  0.216177955 -0.216177955

  length of vectors
     3.270947680  3.270947680  3.270947680     0.374431202  0.374431202  0.374431202

 FORCES acting on ions
    electron-ion (+dipol)            ewald-force                    non-local-force                 convergence-correction
   0.196E-07 0.196E-07 0.661E-07   -.767E-15 0.297E-14 -.221E-14   -.260E-17 0.000E+00 -.120E-17   -.561E-08 -.561E-08 -.561E-08
   -.196E-07 -.196E-07 -.661E-07   0.812E-15 -.220E-14 0.398E-14   0.000E+00 0.173E-17 0.141E-17   0.561E-08 0.561E-08 0.561E-08
   -.849E-14 -.151E-13 -.397E-14   0.952E-16 -.455E-15 -.113E-14   0.827E-24 -.827E-24 0.831E-24   -.106E-13 0.192E-14 -.232E-13
   0.258E-12 0.129E-12 0.611E-12   0.140E-15 0.313E-15 0.636E-15   -.260E-17 0.173E-17 0.217E-18   -.903E-14 0.112E-13 -.194E-13

 POSITION                                       TOTAL-FORCE (eV/Angst)
      3.46936      3.46936      3.46936         0.000000      0.000000      0.000000
      1.15645      1.15645      1.15645        -0.000000     -0.000000     -0.000000
      0.00000     -0.00000      0.00000         0.000000      0.000000      0.000000
    total drift:                                0.000000      0.000000      0.000000

  FREE ENERGIE OF THE ION-ELECTRON SYSTEM (eV)
  free  energy   TOTEN  =       -14.34802163 eV

  energy  without entropy=      -14.34802163  energy(sigma->0) =      -14.34802163

 d Force = 0.0000000E+00[ 0.000E+00, 0.000E+00]  d Energy = 0.5498885E-03-0.550E-03
 d Force = 0.0000000E+00[ 0.000E+00, 0.000E+00]  d Ewald  = 0.1514591E+01-0.151E+01

 reached required accuracy - stopping structural energy minimisation

 total charge

[...]

 magnetization (x)

# of ion       s       p       d       tot
    1       -0.000   0.000   0.000   0.000
    2       -0.000   0.000   0.000   0.000
    3        0.000   0.000   0.000   0.000
tot         -0.000   0.000   0.000   0.000

 BZINTS: Fermi energy:  1.453690; 12.000000 electrons
         Band energy:-193.197460;  BLOECHL correction:  0.000000